*HEADING
Nayak Ex.4 cantilever 04_Al -- 3-D C3D8I frequency benchmark
*NODE
1, 0.00000000, 0.00000000, 0.00000000
2, 0.00633333, 0.00000000, 0.00000000
3, 0.01266667, 0.00000000, 0.00000000
4, 0.01900000, 0.00000000, 0.00000000
5, 0.02533333, 0.00000000, 0.00000000
6, 0.03166667, 0.00000000, 0.00000000
7, 0.03800000, 0.00000000, 0.00000000
8, 0.04433333, 0.00000000, 0.00000000
9, 0.05066667, 0.00000000, 0.00000000
10, 0.05700000, 0.00000000, 0.00000000
11, 0.06333333, 0.00000000, 0.00000000
12, 0.06966667, 0.00000000, 0.00000000
13, 0.07600000, 0.00000000, 0.00000000
14, 0.08233333, 0.00000000, 0.00000000
15, 0.08866667, 0.00000000, 0.00000000
16, 0.09500000, 0.00000000, 0.00000000
17, 0.10133333, 0.00000000, 0.00000000
18, 0.10766667, 0.00000000, 0.00000000
19, 0.11400000, 0.00000000, 0.00000000
20, 0.12033333, 0.00000000, 0.00000000
21, 0.12666667, 0.00000000, 0.00000000
22, 0.13300000, 0.00000000, 0.00000000
23, 0.13933333, 0.00000000, 0.00000000
24, 0.14566667, 0.00000000, 0.00000000
25, 0.15200000, 0.00000000, 0.00000000
26, 0.00000000, 0.00633333, 0.00000000
27, 0.00633333, 0.00633333, 0.00000000
28, 0.01266667, 0.00633333, 0.00000000
29, 0.01900000, 0.00633333, 0.00000000
30, 0.02533333, 0.00633333, 0.00000000
31, 0.03166667, 0.00633333, 0.00000000
32, 0.03800000, 0.00633333, 0.00000000
33, 0.04433333, 0.00633333, 0.00000000
34, 0.05066667, 0.00633333, 0.00000000
35, 0.05700000, 0.00633333, 0.00000000
36, 0.06333333, 0.00633333, 0.00000000
37, 0.06966667, 0.00633333, 0.00000000
38, 0.07600000, 0.00633333, 0.00000000
39, 0.08233333, 0.00633333, 0.00000000
40, 0.08866667, 0.00633333, 0.00000000
41, 0.09500000, 0.00633333, 0.00000000
42, 0.10133333, 0.00633333, 0.00000000
43, 0.10766667, 0.00633333, 0.00000000
44, 0.11400000, 0.00633333, 0.00000000
45, 0.12033333, 0.00633333, 0.00000000
46, 0.12666667, 0.00633333, 0.00000000
47, 0.13300000, 0.00633333, 0.00000000
48, 0.13933333, 0.00633333, 0.00000000
49, 0.14566667, 0.00633333, 0.00000000
50, 0.15200000, 0.00633333, 0.00000000
51, 0.00000000, 0.01266667, 0.00000000
52, 0.00633333, 0.01266667, 0.00000000
53, 0.01266667, 0.01266667, 0.00000000
54, 0.01900000, 0.01266667, 0.00000000
55, 0.02533333, 0.01266667, 0.00000000
56, 0.03166667, 0.01266667, 0.00000000
57, 0.03800000, 0.01266667, 0.00000000
58, 0.04433333, 0.01266667, 0.00000000
59, 0.05066667, 0.01266667, 0.00000000
60, 0.05700000, 0.01266667, 0.00000000
61, 0.06333333, 0.01266667, 0.00000000
62, 0.06966667, 0.01266667, 0.00000000
63, 0.07600000, 0.01266667, 0.00000000
64, 0.08233333, 0.01266667, 0.00000000
65, 0.08866667, 0.01266667, 0.00000000
66, 0.09500000, 0.01266667, 0.00000000
67, 0.10133333, 0.01266667, 0.00000000
68, 0.10766667, 0.01266667, 0.00000000
69, 0.11400000, 0.01266667, 0.00000000
70, 0.12033333, 0.01266667, 0.00000000
71, 0.12666667, 0.01266667, 0.00000000
72, 0.13300000, 0.01266667, 0.00000000
73, 0.13933333, 0.01266667, 0.00000000
74, 0.14566667, 0.01266667, 0.00000000
75, 0.15200000, 0.01266667, 0.00000000
76, 0.00000000, 0.01900000, 0.00000000
77, 0.00633333, 0.01900000, 0.00000000
78, 0.01266667, 0.01900000, 0.00000000
79, 0.01900000, 0.01900000, 0.00000000
80, 0.02533333, 0.01900000, 0.00000000
81, 0.03166667, 0.01900000, 0.00000000
82, 0.03800000, 0.01900000, 0.00000000
83, 0.04433333, 0.01900000, 0.00000000
84, 0.05066667, 0.01900000, 0.00000000
85, 0.05700000, 0.01900000, 0.00000000
86, 0.06333333, 0.01900000, 0.00000000
87, 0.06966667, 0.01900000, 0.00000000
88, 0.07600000, 0.01900000, 0.00000000
89, 0.08233333, 0.01900000, 0.00000000
90, 0.08866667, 0.01900000, 0.00000000
91, 0.09500000, 0.01900000, 0.00000000
92, 0.10133333, 0.01900000, 0.00000000
93, 0.10766667, 0.01900000, 0.00000000
94, 0.11400000, 0.01900000, 0.00000000
95, 0.12033333, 0.01900000, 0.00000000
96, 0.12666667, 0.01900000, 0.00000000
97, 0.13300000, 0.01900000, 0.00000000
98, 0.13933333, 0.01900000, 0.00000000
99, 0.14566667, 0.01900000, 0.00000000
100, 0.15200000, 0.01900000, 0.00000000
101, 0.00000000, 0.02533333, 0.00000000
102, 0.00633333, 0.02533333, 0.00000000
103, 0.01266667, 0.02533333, 0.00000000
104, 0.01900000, 0.02533333, 0.00000000
105, 0.02533333, 0.02533333, 0.00000000
106, 0.03166667, 0.02533333, 0.00000000
107, 0.03800000, 0.02533333, 0.00000000
108, 0.04433333, 0.02533333, 0.00000000
109, 0.05066667, 0.02533333, 0.00000000
110, 0.05700000, 0.02533333, 0.00000000
111, 0.06333333, 0.02533333, 0.00000000
112, 0.06966667, 0.02533333, 0.00000000
113, 0.07600000, 0.02533333, 0.00000000
114, 0.08233333, 0.02533333, 0.00000000
115, 0.08866667, 0.02533333, 0.00000000
116, 0.09500000, 0.02533333, 0.00000000
117, 0.10133333, 0.02533333, 0.00000000
118, 0.10766667, 0.02533333, 0.00000000
119, 0.11400000, 0.02533333, 0.00000000
120, 0.12033333, 0.02533333, 0.00000000
121, 0.12666667, 0.02533333, 0.00000000
122, 0.13300000, 0.02533333, 0.00000000
123, 0.13933333, 0.02533333, 0.00000000
124, 0.14566667, 0.02533333, 0.00000000
125, 0.15200000, 0.02533333, 0.00000000
126, 0.00000000, 0.03166667, 0.00000000
127, 0.00633333, 0.03166667, 0.00000000
128, 0.01266667, 0.03166667, 0.00000000
129, 0.01900000, 0.03166667, 0.00000000
130, 0.02533333, 0.03166667, 0.00000000
131, 0.03166667, 0.03166667, 0.00000000
132, 0.03800000, 0.03166667, 0.00000000
133, 0.04433333, 0.03166667, 0.00000000
134, 0.05066667, 0.03166667, 0.00000000
135, 0.05700000, 0.03166667, 0.00000000
136, 0.06333333, 0.03166667, 0.00000000
137, 0.06966667, 0.03166667, 0.00000000
138, 0.07600000, 0.03166667, 0.00000000
139, 0.08233333, 0.03166667, 0.00000000
140, 0.08866667, 0.03166667, 0.00000000
141, 0.09500000, 0.03166667, 0.00000000
142, 0.10133333, 0.03166667, 0.00000000
143, 0.10766667, 0.03166667, 0.00000000
144, 0.11400000, 0.03166667, 0.00000000
145, 0.12033333, 0.03166667, 0.00000000
146, 0.12666667, 0.03166667, 0.00000000
147, 0.13300000, 0.03166667, 0.00000000
148, 0.13933333, 0.03166667, 0.00000000
149, 0.14566667, 0.03166667, 0.00000000
150, 0.15200000, 0.03166667, 0.00000000
151, 0.00000000, 0.03800000, 0.00000000
152, 0.00633333, 0.03800000, 0.00000000
153, 0.01266667, 0.03800000, 0.00000000
154, 0.01900000, 0.03800000, 0.00000000
155, 0.02533333, 0.03800000, 0.00000000
156, 0.03166667, 0.03800000, 0.00000000
157, 0.03800000, 0.03800000, 0.00000000
158, 0.04433333, 0.03800000, 0.00000000
159, 0.05066667, 0.03800000, 0.00000000
160, 0.05700000, 0.03800000, 0.00000000
161, 0.06333333, 0.03800000, 0.00000000
162, 0.06966667, 0.03800000, 0.00000000
163, 0.07600000, 0.03800000, 0.00000000
164, 0.08233333, 0.03800000, 0.00000000
165, 0.08866667, 0.03800000, 0.00000000
166, 0.09500000, 0.03800000, 0.00000000
167, 0.10133333, 0.03800000, 0.00000000
168, 0.10766667, 0.03800000, 0.00000000
169, 0.11400000, 0.03800000, 0.00000000
170, 0.12033333, 0.03800000, 0.00000000
171, 0.12666667, 0.03800000, 0.00000000
172, 0.13300000, 0.03800000, 0.00000000
173, 0.13933333, 0.03800000, 0.00000000
174, 0.14566667, 0.03800000, 0.00000000
175, 0.15200000, 0.03800000, 0.00000000
176, 0.00000000, 0.04433333, 0.00000000
177, 0.00633333, 0.04433333, 0.00000000
178, 0.01266667, 0.04433333, 0.00000000
179, 0.01900000, 0.04433333, 0.00000000
180, 0.02533333, 0.04433333, 0.00000000
181, 0.03166667, 0.04433333, 0.00000000
182, 0.03800000, 0.04433333, 0.00000000
183, 0.04433333, 0.04433333, 0.00000000
184, 0.05066667, 0.04433333, 0.00000000
185, 0.05700000, 0.04433333, 0.00000000
186, 0.06333333, 0.04433333, 0.00000000
187, 0.06966667, 0.04433333, 0.00000000
188, 0.07600000, 0.04433333, 0.00000000
189, 0.08233333, 0.04433333, 0.00000000
190, 0.08866667, 0.04433333, 0.00000000
191, 0.09500000, 0.04433333, 0.00000000
192, 0.10133333, 0.04433333, 0.00000000
193, 0.10766667, 0.04433333, 0.00000000
194, 0.11400000, 0.04433333, 0.00000000
195, 0.12033333, 0.04433333, 0.00000000
196, 0.12666667, 0.04433333, 0.00000000
197, 0.13300000, 0.04433333, 0.00000000
198, 0.13933333, 0.04433333, 0.00000000
199, 0.14566667, 0.04433333, 0.00000000
200, 0.15200000, 0.04433333, 0.00000000
201, 0.00000000, 0.05066667, 0.00000000
202, 0.00633333, 0.05066667, 0.00000000
203, 0.01266667, 0.05066667, 0.00000000
204, 0.01900000, 0.05066667, 0.00000000
205, 0.02533333, 0.05066667, 0.00000000
206, 0.03166667, 0.05066667, 0.00000000
207, 0.03800000, 0.05066667, 0.00000000
208, 0.04433333, 0.05066667, 0.00000000
209, 0.05066667, 0.05066667, 0.00000000
210, 0.05700000, 0.05066667, 0.00000000
211, 0.06333333, 0.05066667, 0.00000000
212, 0.06966667, 0.05066667, 0.00000000
213, 0.07600000, 0.05066667, 0.00000000
214, 0.08233333, 0.05066667, 0.00000000
215, 0.08866667, 0.05066667, 0.00000000
216, 0.09500000, 0.05066667, 0.00000000
217, 0.10133333, 0.05066667, 0.00000000
218, 0.10766667, 0.05066667, 0.00000000
219, 0.11400000, 0.05066667, 0.00000000
220, 0.12033333, 0.05066667, 0.00000000
221, 0.12666667, 0.05066667, 0.00000000
222, 0.13300000, 0.05066667, 0.00000000
223, 0.13933333, 0.05066667, 0.00000000
224, 0.14566667, 0.05066667, 0.00000000
225, 0.15200000, 0.05066667, 0.00000000
226, 0.00000000, 0.05700000, 0.00000000
227, 0.00633333, 0.05700000, 0.00000000
228, 0.01266667, 0.05700000, 0.00000000
229, 0.01900000, 0.05700000, 0.00000000
230, 0.02533333, 0.05700000, 0.00000000
231, 0.03166667, 0.05700000, 0.00000000
232, 0.03800000, 0.05700000, 0.00000000
233, 0.04433333, 0.05700000, 0.00000000
234, 0.05066667, 0.05700000, 0.00000000
235, 0.05700000, 0.05700000, 0.00000000
236, 0.06333333, 0.05700000, 0.00000000
237, 0.06966667, 0.05700000, 0.00000000
238, 0.07600000, 0.05700000, 0.00000000
239, 0.08233333, 0.05700000, 0.00000000
240, 0.08866667, 0.05700000, 0.00000000
241, 0.09500000, 0.05700000, 0.00000000
242, 0.10133333, 0.05700000, 0.00000000
243, 0.10766667, 0.05700000, 0.00000000
244, 0.11400000, 0.05700000, 0.00000000
245, 0.12033333, 0.05700000, 0.00000000
246, 0.12666667, 0.05700000, 0.00000000
247, 0.13300000, 0.05700000, 0.00000000
248, 0.13933333, 0.05700000, 0.00000000
249, 0.14566667, 0.05700000, 0.00000000
250, 0.15200000, 0.05700000, 0.00000000
251, 0.00000000, 0.06333333, 0.00000000
252, 0.00633333, 0.06333333, 0.00000000
253, 0.01266667, 0.06333333, 0.00000000
254, 0.01900000, 0.06333333, 0.00000000
255, 0.02533333, 0.06333333, 0.00000000
256, 0.03166667, 0.06333333, 0.00000000
257, 0.03800000, 0.06333333, 0.00000000
258, 0.04433333, 0.06333333, 0.00000000
259, 0.05066667, 0.06333333, 0.00000000
260, 0.05700000, 0.06333333, 0.00000000
261, 0.06333333, 0.06333333, 0.00000000
262, 0.06966667, 0.06333333, 0.00000000
263, 0.07600000, 0.06333333, 0.00000000
264, 0.08233333, 0.06333333, 0.00000000
265, 0.08866667, 0.06333333, 0.00000000
266, 0.09500000, 0.06333333, 0.00000000
267, 0.10133333, 0.06333333, 0.00000000
268, 0.10766667, 0.06333333, 0.00000000
269, 0.11400000, 0.06333333, 0.00000000
270, 0.12033333, 0.06333333, 0.00000000
271, 0.12666667, 0.06333333, 0.00000000
272, 0.13300000, 0.06333333, 0.00000000
273, 0.13933333, 0.06333333, 0.00000000
274, 0.14566667, 0.06333333, 0.00000000
275, 0.15200000, 0.06333333, 0.00000000
276, 0.00000000, 0.06966667, 0.00000000
277, 0.00633333, 0.06966667, 0.00000000
278, 0.01266667, 0.06966667, 0.00000000
279, 0.01900000, 0.06966667, 0.00000000
280, 0.02533333, 0.06966667, 0.00000000
281, 0.03166667, 0.06966667, 0.00000000
282, 0.03800000, 0.06966667, 0.00000000
283, 0.04433333, 0.06966667, 0.00000000
284, 0.05066667, 0.06966667, 0.00000000
285, 0.05700000, 0.06966667, 0.00000000
286, 0.06333333, 0.06966667, 0.00000000
287, 0.06966667, 0.06966667, 0.00000000
288, 0.07600000, 0.06966667, 0.00000000
289, 0.08233333, 0.06966667, 0.00000000
290, 0.08866667, 0.06966667, 0.00000000
291, 0.09500000, 0.06966667, 0.00000000
292, 0.10133333, 0.06966667, 0.00000000
293, 0.10766667, 0.06966667, 0.00000000
294, 0.11400000, 0.06966667, 0.00000000
295, 0.12033333, 0.06966667, 0.00000000
296, 0.12666667, 0.06966667, 0.00000000
297, 0.13300000, 0.06966667, 0.00000000
298, 0.13933333, 0.06966667, 0.00000000
299, 0.14566667, 0.06966667, 0.00000000
300, 0.15200000, 0.06966667, 0.00000000
301, 0.00000000, 0.07600000, 0.00000000
302, 0.00633333, 0.07600000, 0.00000000
303, 0.01266667, 0.07600000, 0.00000000
304, 0.01900000, 0.07600000, 0.00000000
305, 0.02533333, 0.07600000, 0.00000000
306, 0.03166667, 0.07600000, 0.00000000
307, 0.03800000, 0.07600000, 0.00000000
308, 0.04433333, 0.07600000, 0.00000000
309, 0.05066667, 0.07600000, 0.00000000
310, 0.05700000, 0.07600000, 0.00000000
311, 0.06333333, 0.07600000, 0.00000000
312, 0.06966667, 0.07600000, 0.00000000
313, 0.07600000, 0.07600000, 0.00000000
314, 0.08233333, 0.07600000, 0.00000000
315, 0.08866667, 0.07600000, 0.00000000
316, 0.09500000, 0.07600000, 0.00000000
317, 0.10133333, 0.07600000, 0.00000000
318, 0.10766667, 0.07600000, 0.00000000
319, 0.11400000, 0.07600000, 0.00000000
320, 0.12033333, 0.07600000, 0.00000000
321, 0.12666667, 0.07600000, 0.00000000
322, 0.13300000, 0.07600000, 0.00000000
323, 0.13933333, 0.07600000, 0.00000000
324, 0.14566667, 0.07600000, 0.00000000
325, 0.15200000, 0.07600000, 0.00000000
326, 0.00000000, 0.00000000, 0.00013000
327, 0.00633333, 0.00000000, 0.00013000
328, 0.01266667, 0.00000000, 0.00013000
329, 0.01900000, 0.00000000, 0.00013000
330, 0.02533333, 0.00000000, 0.00013000
331, 0.03166667, 0.00000000, 0.00013000
332, 0.03800000, 0.00000000, 0.00013000
333, 0.04433333, 0.00000000, 0.00013000
334, 0.05066667, 0.00000000, 0.00013000
335, 0.05700000, 0.00000000, 0.00013000
336, 0.06333333, 0.00000000, 0.00013000
337, 0.06966667, 0.00000000, 0.00013000
338, 0.07600000, 0.00000000, 0.00013000
339, 0.08233333, 0.00000000, 0.00013000
340, 0.08866667, 0.00000000, 0.00013000
341, 0.09500000, 0.00000000, 0.00013000
342, 0.10133333, 0.00000000, 0.00013000
343, 0.10766667, 0.00000000, 0.00013000
344, 0.11400000, 0.00000000, 0.00013000
345, 0.12033333, 0.00000000, 0.00013000
346, 0.12666667, 0.00000000, 0.00013000
347, 0.13300000, 0.00000000, 0.00013000
348, 0.13933333, 0.00000000, 0.00013000
349, 0.14566667, 0.00000000, 0.00013000
350, 0.15200000, 0.00000000, 0.00013000
351, 0.00000000, 0.00633333, 0.00013000
352, 0.00633333, 0.00633333, 0.00013000
353, 0.01266667, 0.00633333, 0.00013000
354, 0.01900000, 0.00633333, 0.00013000
355, 0.02533333, 0.00633333, 0.00013000
356, 0.03166667, 0.00633333, 0.00013000
357, 0.03800000, 0.00633333, 0.00013000
358, 0.04433333, 0.00633333, 0.00013000
359, 0.05066667, 0.00633333, 0.00013000
360, 0.05700000, 0.00633333, 0.00013000
361, 0.06333333, 0.00633333, 0.00013000
362, 0.06966667, 0.00633333, 0.00013000
363, 0.07600000, 0.00633333, 0.00013000
364, 0.08233333, 0.00633333, 0.00013000
365, 0.08866667, 0.00633333, 0.00013000
366, 0.09500000, 0.00633333, 0.00013000
367, 0.10133333, 0.00633333, 0.00013000
368, 0.10766667, 0.00633333, 0.00013000
369, 0.11400000, 0.00633333, 0.00013000
370, 0.12033333, 0.00633333, 0.00013000
371, 0.12666667, 0.00633333, 0.00013000
372, 0.13300000, 0.00633333, 0.00013000
373, 0.13933333, 0.00633333, 0.00013000
374, 0.14566667, 0.00633333, 0.00013000
375, 0.15200000, 0.00633333, 0.00013000
376, 0.00000000, 0.01266667, 0.00013000
377, 0.00633333, 0.01266667, 0.00013000
378, 0.01266667, 0.01266667, 0.00013000
379, 0.01900000, 0.01266667, 0.00013000
380, 0.02533333, 0.01266667, 0.00013000
381, 0.03166667, 0.01266667, 0.00013000
382, 0.03800000, 0.01266667, 0.00013000
383, 0.04433333, 0.01266667, 0.00013000
384, 0.05066667, 0.01266667, 0.00013000
385, 0.05700000, 0.01266667, 0.00013000
386, 0.06333333, 0.01266667, 0.00013000
387, 0.06966667, 0.01266667, 0.00013000
388, 0.07600000, 0.01266667, 0.00013000
389, 0.08233333, 0.01266667, 0.00013000
390, 0.08866667, 0.01266667, 0.00013000
391, 0.09500000, 0.01266667, 0.00013000
392, 0.10133333, 0.01266667, 0.00013000
393, 0.10766667, 0.01266667, 0.00013000
394, 0.11400000, 0.01266667, 0.00013000
395, 0.12033333, 0.01266667, 0.00013000
396, 0.12666667, 0.01266667, 0.00013000
397, 0.13300000, 0.01266667, 0.00013000
398, 0.13933333, 0.01266667, 0.00013000
399, 0.14566667, 0.01266667, 0.00013000
400, 0.15200000, 0.01266667, 0.00013000
401, 0.00000000, 0.01900000, 0.00013000
402, 0.00633333, 0.01900000, 0.00013000
403, 0.01266667, 0.01900000, 0.00013000
404, 0.01900000, 0.01900000, 0.00013000
405, 0.02533333, 0.01900000, 0.00013000
406, 0.03166667, 0.01900000, 0.00013000
407, 0.03800000, 0.01900000, 0.00013000
408, 0.04433333, 0.01900000, 0.00013000
409, 0.05066667, 0.01900000, 0.00013000
410, 0.05700000, 0.01900000, 0.00013000
411, 0.06333333, 0.01900000, 0.00013000
412, 0.06966667, 0.01900000, 0.00013000
413, 0.07600000, 0.01900000, 0.00013000
414, 0.08233333, 0.01900000, 0.00013000
415, 0.08866667, 0.01900000, 0.00013000
416, 0.09500000, 0.01900000, 0.00013000
417, 0.10133333, 0.01900000, 0.00013000
418, 0.10766667, 0.01900000, 0.00013000
419, 0.11400000, 0.01900000, 0.00013000
420, 0.12033333, 0.01900000, 0.00013000
421, 0.12666667, 0.01900000, 0.00013000
422, 0.13300000, 0.01900000, 0.00013000
423, 0.13933333, 0.01900000, 0.00013000
424, 0.14566667, 0.01900000, 0.00013000
425, 0.15200000, 0.01900000, 0.00013000
426, 0.00000000, 0.02533333, 0.00013000
427, 0.00633333, 0.02533333, 0.00013000
428, 0.01266667, 0.02533333, 0.00013000
429, 0.01900000, 0.02533333, 0.00013000
430, 0.02533333, 0.02533333, 0.00013000
431, 0.03166667, 0.02533333, 0.00013000
432, 0.03800000, 0.02533333, 0.00013000
433, 0.04433333, 0.02533333, 0.00013000
434, 0.05066667, 0.02533333, 0.00013000
435, 0.05700000, 0.02533333, 0.00013000
436, 0.06333333, 0.02533333, 0.00013000
437, 0.06966667, 0.02533333, 0.00013000
438, 0.07600000, 0.02533333, 0.00013000
439, 0.08233333, 0.02533333, 0.00013000
440, 0.08866667, 0.02533333, 0.00013000
441, 0.09500000, 0.02533333, 0.00013000
442, 0.10133333, 0.02533333, 0.00013000
443, 0.10766667, 0.02533333, 0.00013000
444, 0.11400000, 0.02533333, 0.00013000
445, 0.12033333, 0.02533333, 0.00013000
446, 0.12666667, 0.02533333, 0.00013000
447, 0.13300000, 0.02533333, 0.00013000
448, 0.13933333, 0.02533333, 0.00013000
449, 0.14566667, 0.02533333, 0.00013000
450, 0.15200000, 0.02533333, 0.00013000
451, 0.00000000, 0.03166667, 0.00013000
452, 0.00633333, 0.03166667, 0.00013000
453, 0.01266667, 0.03166667, 0.00013000
454, 0.01900000, 0.03166667, 0.00013000
455, 0.02533333, 0.03166667, 0.00013000
456, 0.03166667, 0.03166667, 0.00013000
457, 0.03800000, 0.03166667, 0.00013000
458, 0.04433333, 0.03166667, 0.00013000
459, 0.05066667, 0.03166667, 0.00013000
460, 0.05700000, 0.03166667, 0.00013000
461, 0.06333333, 0.03166667, 0.00013000
462, 0.06966667, 0.03166667, 0.00013000
463, 0.07600000, 0.03166667, 0.00013000
464, 0.08233333, 0.03166667, 0.00013000
465, 0.08866667, 0.03166667, 0.00013000
466, 0.09500000, 0.03166667, 0.00013000
467, 0.10133333, 0.03166667, 0.00013000
468, 0.10766667, 0.03166667, 0.00013000
469, 0.11400000, 0.03166667, 0.00013000
470, 0.12033333, 0.03166667, 0.00013000
471, 0.12666667, 0.03166667, 0.00013000
472, 0.13300000, 0.03166667, 0.00013000
473, 0.13933333, 0.03166667, 0.00013000
474, 0.14566667, 0.03166667, 0.00013000
475, 0.15200000, 0.03166667, 0.00013000
476, 0.00000000, 0.03800000, 0.00013000
477, 0.00633333, 0.03800000, 0.00013000
478, 0.01266667, 0.03800000, 0.00013000
479, 0.01900000, 0.03800000, 0.00013000
480, 0.02533333, 0.03800000, 0.00013000
481, 0.03166667, 0.03800000, 0.00013000
482, 0.03800000, 0.03800000, 0.00013000
483, 0.04433333, 0.03800000, 0.00013000
484, 0.05066667, 0.03800000, 0.00013000
485, 0.05700000, 0.03800000, 0.00013000
486, 0.06333333, 0.03800000, 0.00013000
487, 0.06966667, 0.03800000, 0.00013000
488, 0.07600000, 0.03800000, 0.00013000
489, 0.08233333, 0.03800000, 0.00013000
490, 0.08866667, 0.03800000, 0.00013000
491, 0.09500000, 0.03800000, 0.00013000
492, 0.10133333, 0.03800000, 0.00013000
493, 0.10766667, 0.03800000, 0.00013000
494, 0.11400000, 0.03800000, 0.00013000
495, 0.12033333, 0.03800000, 0.00013000
496, 0.12666667, 0.03800000, 0.00013000
497, 0.13300000, 0.03800000, 0.00013000
498, 0.13933333, 0.03800000, 0.00013000
499, 0.14566667, 0.03800000, 0.00013000
500, 0.15200000, 0.03800000, 0.00013000
501, 0.00000000, 0.04433333, 0.00013000
502, 0.00633333, 0.04433333, 0.00013000
503, 0.01266667, 0.04433333, 0.00013000
504, 0.01900000, 0.04433333, 0.00013000
505, 0.02533333, 0.04433333, 0.00013000
506, 0.03166667, 0.04433333, 0.00013000
507, 0.03800000, 0.04433333, 0.00013000
508, 0.04433333, 0.04433333, 0.00013000
509, 0.05066667, 0.04433333, 0.00013000
510, 0.05700000, 0.04433333, 0.00013000
511, 0.06333333, 0.04433333, 0.00013000
512, 0.06966667, 0.04433333, 0.00013000
513, 0.07600000, 0.04433333, 0.00013000
514, 0.08233333, 0.04433333, 0.00013000
515, 0.08866667, 0.04433333, 0.00013000
516, 0.09500000, 0.04433333, 0.00013000
517, 0.10133333, 0.04433333, 0.00013000
518, 0.10766667, 0.04433333, 0.00013000
519, 0.11400000, 0.04433333, 0.00013000
520, 0.12033333, 0.04433333, 0.00013000
521, 0.12666667, 0.04433333, 0.00013000
522, 0.13300000, 0.04433333, 0.00013000
523, 0.13933333, 0.04433333, 0.00013000
524, 0.14566667, 0.04433333, 0.00013000
525, 0.15200000, 0.04433333, 0.00013000
526, 0.00000000, 0.05066667, 0.00013000
527, 0.00633333, 0.05066667, 0.00013000
528, 0.01266667, 0.05066667, 0.00013000
529, 0.01900000, 0.05066667, 0.00013000
530, 0.02533333, 0.05066667, 0.00013000
531, 0.03166667, 0.05066667, 0.00013000
532, 0.03800000, 0.05066667, 0.00013000
533, 0.04433333, 0.05066667, 0.00013000
534, 0.05066667, 0.05066667, 0.00013000
535, 0.05700000, 0.05066667, 0.00013000
536, 0.06333333, 0.05066667, 0.00013000
537, 0.06966667, 0.05066667, 0.00013000
538, 0.07600000, 0.05066667, 0.00013000
539, 0.08233333, 0.05066667, 0.00013000
540, 0.08866667, 0.05066667, 0.00013000
541, 0.09500000, 0.05066667, 0.00013000
542, 0.10133333, 0.05066667, 0.00013000
543, 0.10766667, 0.05066667, 0.00013000
544, 0.11400000, 0.05066667, 0.00013000
545, 0.12033333, 0.05066667, 0.00013000
546, 0.12666667, 0.05066667, 0.00013000
547, 0.13300000, 0.05066667, 0.00013000
548, 0.13933333, 0.05066667, 0.00013000
549, 0.14566667, 0.05066667, 0.00013000
550, 0.15200000, 0.05066667, 0.00013000
551, 0.00000000, 0.05700000, 0.00013000
552, 0.00633333, 0.05700000, 0.00013000
553, 0.01266667, 0.05700000, 0.00013000
554, 0.01900000, 0.05700000, 0.00013000
555, 0.02533333, 0.05700000, 0.00013000
556, 0.03166667, 0.05700000, 0.00013000
557, 0.03800000, 0.05700000, 0.00013000
558, 0.04433333, 0.05700000, 0.00013000
559, 0.05066667, 0.05700000, 0.00013000
560, 0.05700000, 0.05700000, 0.00013000
561, 0.06333333, 0.05700000, 0.00013000
562, 0.06966667, 0.05700000, 0.00013000
563, 0.07600000, 0.05700000, 0.00013000
564, 0.08233333, 0.05700000, 0.00013000
565, 0.08866667, 0.05700000, 0.00013000
566, 0.09500000, 0.05700000, 0.00013000
567, 0.10133333, 0.05700000, 0.00013000
568, 0.10766667, 0.05700000, 0.00013000
569, 0.11400000, 0.05700000, 0.00013000
570, 0.12033333, 0.05700000, 0.00013000
571, 0.12666667, 0.05700000, 0.00013000
572, 0.13300000, 0.05700000, 0.00013000
573, 0.13933333, 0.05700000, 0.00013000
574, 0.14566667, 0.05700000, 0.00013000
575, 0.15200000, 0.05700000, 0.00013000
576, 0.00000000, 0.06333333, 0.00013000
577, 0.00633333, 0.06333333, 0.00013000
578, 0.01266667, 0.06333333, 0.00013000
579, 0.01900000, 0.06333333, 0.00013000
580, 0.02533333, 0.06333333, 0.00013000
581, 0.03166667, 0.06333333, 0.00013000
582, 0.03800000, 0.06333333, 0.00013000
583, 0.04433333, 0.06333333, 0.00013000
584, 0.05066667, 0.06333333, 0.00013000
585, 0.05700000, 0.06333333, 0.00013000
586, 0.06333333, 0.06333333, 0.00013000
587, 0.06966667, 0.06333333, 0.00013000
588, 0.07600000, 0.06333333, 0.00013000
589, 0.08233333, 0.06333333, 0.00013000
590, 0.08866667, 0.06333333, 0.00013000
591, 0.09500000, 0.06333333, 0.00013000
592, 0.10133333, 0.06333333, 0.00013000
593, 0.10766667, 0.06333333, 0.00013000
594, 0.11400000, 0.06333333, 0.00013000
595, 0.12033333, 0.06333333, 0.00013000
596, 0.12666667, 0.06333333, 0.00013000
597, 0.13300000, 0.06333333, 0.00013000
598, 0.13933333, 0.06333333, 0.00013000
599, 0.14566667, 0.06333333, 0.00013000
600, 0.15200000, 0.06333333, 0.00013000
601, 0.00000000, 0.06966667, 0.00013000
602, 0.00633333, 0.06966667, 0.00013000
603, 0.01266667, 0.06966667, 0.00013000
604, 0.01900000, 0.06966667, 0.00013000
605, 0.02533333, 0.06966667, 0.00013000
606, 0.03166667, 0.06966667, 0.00013000
607, 0.03800000, 0.06966667, 0.00013000
608, 0.04433333, 0.06966667, 0.00013000
609, 0.05066667, 0.06966667, 0.00013000
610, 0.05700000, 0.06966667, 0.00013000
611, 0.06333333, 0.06966667, 0.00013000
612, 0.06966667, 0.06966667, 0.00013000
613, 0.07600000, 0.06966667, 0.00013000
614, 0.08233333, 0.06966667, 0.00013000
615, 0.08866667, 0.06966667, 0.00013000
616, 0.09500000, 0.06966667, 0.00013000
617, 0.10133333, 0.06966667, 0.00013000
618, 0.10766667, 0.06966667, 0.00013000
619, 0.11400000, 0.06966667, 0.00013000
620, 0.12033333, 0.06966667, 0.00013000
621, 0.12666667, 0.06966667, 0.00013000
622, 0.13300000, 0.06966667, 0.00013000
623, 0.13933333, 0.06966667, 0.00013000
624, 0.14566667, 0.06966667, 0.00013000
625, 0.15200000, 0.06966667, 0.00013000
626, 0.00000000, 0.07600000, 0.00013000
627, 0.00633333, 0.07600000, 0.00013000
628, 0.01266667, 0.07600000, 0.00013000
629, 0.01900000, 0.07600000, 0.00013000
630, 0.02533333, 0.07600000, 0.00013000
631, 0.03166667, 0.07600000, 0.00013000
632, 0.03800000, 0.07600000, 0.00013000
633, 0.04433333, 0.07600000, 0.00013000
634, 0.05066667, 0.07600000, 0.00013000
635, 0.05700000, 0.07600000, 0.00013000
636, 0.06333333, 0.07600000, 0.00013000
637, 0.06966667, 0.07600000, 0.00013000
638, 0.07600000, 0.07600000, 0.00013000
639, 0.08233333, 0.07600000, 0.00013000
640, 0.08866667, 0.07600000, 0.00013000
641, 0.09500000, 0.07600000, 0.00013000
642, 0.10133333, 0.07600000, 0.00013000
643, 0.10766667, 0.07600000, 0.00013000
644, 0.11400000, 0.07600000, 0.00013000
645, 0.12033333, 0.07600000, 0.00013000
646, 0.12666667, 0.07600000, 0.00013000
647, 0.13300000, 0.07600000, 0.00013000
648, 0.13933333, 0.07600000, 0.00013000
649, 0.14566667, 0.07600000, 0.00013000
650, 0.15200000, 0.07600000, 0.00013000
651, 0.00000000, 0.00000000, 0.00026000
652, 0.00633333, 0.00000000, 0.00026000
653, 0.01266667, 0.00000000, 0.00026000
654, 0.01900000, 0.00000000, 0.00026000
655, 0.02533333, 0.00000000, 0.00026000
656, 0.03166667, 0.00000000, 0.00026000
657, 0.03800000, 0.00000000, 0.00026000
658, 0.04433333, 0.00000000, 0.00026000
659, 0.05066667, 0.00000000, 0.00026000
660, 0.05700000, 0.00000000, 0.00026000
661, 0.06333333, 0.00000000, 0.00026000
662, 0.06966667, 0.00000000, 0.00026000
663, 0.07600000, 0.00000000, 0.00026000
664, 0.08233333, 0.00000000, 0.00026000
665, 0.08866667, 0.00000000, 0.00026000
666, 0.09500000, 0.00000000, 0.00026000
667, 0.10133333, 0.00000000, 0.00026000
668, 0.10766667, 0.00000000, 0.00026000
669, 0.11400000, 0.00000000, 0.00026000
670, 0.12033333, 0.00000000, 0.00026000
671, 0.12666667, 0.00000000, 0.00026000
672, 0.13300000, 0.00000000, 0.00026000
673, 0.13933333, 0.00000000, 0.00026000
674, 0.14566667, 0.00000000, 0.00026000
675, 0.15200000, 0.00000000, 0.00026000
676, 0.00000000, 0.00633333, 0.00026000
677, 0.00633333, 0.00633333, 0.00026000
678, 0.01266667, 0.00633333, 0.00026000
679, 0.01900000, 0.00633333, 0.00026000
680, 0.02533333, 0.00633333, 0.00026000
681, 0.03166667, 0.00633333, 0.00026000
682, 0.03800000, 0.00633333, 0.00026000
683, 0.04433333, 0.00633333, 0.00026000
684, 0.05066667, 0.00633333, 0.00026000
685, 0.05700000, 0.00633333, 0.00026000
686, 0.06333333, 0.00633333, 0.00026000
687, 0.06966667, 0.00633333, 0.00026000
688, 0.07600000, 0.00633333, 0.00026000
689, 0.08233333, 0.00633333, 0.00026000
690, 0.08866667, 0.00633333, 0.00026000
691, 0.09500000, 0.00633333, 0.00026000
692, 0.10133333, 0.00633333, 0.00026000
693, 0.10766667, 0.00633333, 0.00026000
694, 0.11400000, 0.00633333, 0.00026000
695, 0.12033333, 0.00633333, 0.00026000
696, 0.12666667, 0.00633333, 0.00026000
697, 0.13300000, 0.00633333, 0.00026000
698, 0.13933333, 0.00633333, 0.00026000
699, 0.14566667, 0.00633333, 0.00026000
700, 0.15200000, 0.00633333, 0.00026000
701, 0.00000000, 0.01266667, 0.00026000
702, 0.00633333, 0.01266667, 0.00026000
703, 0.01266667, 0.01266667, 0.00026000
704, 0.01900000, 0.01266667, 0.00026000
705, 0.02533333, 0.01266667, 0.00026000
706, 0.03166667, 0.01266667, 0.00026000
707, 0.03800000, 0.01266667, 0.00026000
708, 0.04433333, 0.01266667, 0.00026000
709, 0.05066667, 0.01266667, 0.00026000
710, 0.05700000, 0.01266667, 0.00026000
711, 0.06333333, 0.01266667, 0.00026000
712, 0.06966667, 0.01266667, 0.00026000
713, 0.07600000, 0.01266667, 0.00026000
714, 0.08233333, 0.01266667, 0.00026000
715, 0.08866667, 0.01266667, 0.00026000
716, 0.09500000, 0.01266667, 0.00026000
717, 0.10133333, 0.01266667, 0.00026000
718, 0.10766667, 0.01266667, 0.00026000
719, 0.11400000, 0.01266667, 0.00026000
720, 0.12033333, 0.01266667, 0.00026000
721, 0.12666667, 0.01266667, 0.00026000
722, 0.13300000, 0.01266667, 0.00026000
723, 0.13933333, 0.01266667, 0.00026000
724, 0.14566667, 0.01266667, 0.00026000
725, 0.15200000, 0.01266667, 0.00026000
726, 0.00000000, 0.01900000, 0.00026000
727, 0.00633333, 0.01900000, 0.00026000
728, 0.01266667, 0.01900000, 0.00026000
729, 0.01900000, 0.01900000, 0.00026000
730, 0.02533333, 0.01900000, 0.00026000
731, 0.03166667, 0.01900000, 0.00026000
732, 0.03800000, 0.01900000, 0.00026000
733, 0.04433333, 0.01900000, 0.00026000
734, 0.05066667, 0.01900000, 0.00026000
735, 0.05700000, 0.01900000, 0.00026000
736, 0.06333333, 0.01900000, 0.00026000
737, 0.06966667, 0.01900000, 0.00026000
738, 0.07600000, 0.01900000, 0.00026000
739, 0.08233333, 0.01900000, 0.00026000
740, 0.08866667, 0.01900000, 0.00026000
741, 0.09500000, 0.01900000, 0.00026000
742, 0.10133333, 0.01900000, 0.00026000
743, 0.10766667, 0.01900000, 0.00026000
744, 0.11400000, 0.01900000, 0.00026000
745, 0.12033333, 0.01900000, 0.00026000
746, 0.12666667, 0.01900000, 0.00026000
747, 0.13300000, 0.01900000, 0.00026000
748, 0.13933333, 0.01900000, 0.00026000
749, 0.14566667, 0.01900000, 0.00026000
750, 0.15200000, 0.01900000, 0.00026000
751, 0.00000000, 0.02533333, 0.00026000
752, 0.00633333, 0.02533333, 0.00026000
753, 0.01266667, 0.02533333, 0.00026000
754, 0.01900000, 0.02533333, 0.00026000
755, 0.02533333, 0.02533333, 0.00026000
756, 0.03166667, 0.02533333, 0.00026000
757, 0.03800000, 0.02533333, 0.00026000
758, 0.04433333, 0.02533333, 0.00026000
759, 0.05066667, 0.02533333, 0.00026000
760, 0.05700000, 0.02533333, 0.00026000
761, 0.06333333, 0.02533333, 0.00026000
762, 0.06966667, 0.02533333, 0.00026000
763, 0.07600000, 0.02533333, 0.00026000
764, 0.08233333, 0.02533333, 0.00026000
765, 0.08866667, 0.02533333, 0.00026000
766, 0.09500000, 0.02533333, 0.00026000
767, 0.10133333, 0.02533333, 0.00026000
768, 0.10766667, 0.02533333, 0.00026000
769, 0.11400000, 0.02533333, 0.00026000
770, 0.12033333, 0.02533333, 0.00026000
771, 0.12666667, 0.02533333, 0.00026000
772, 0.13300000, 0.02533333, 0.00026000
773, 0.13933333, 0.02533333, 0.00026000
774, 0.14566667, 0.02533333, 0.00026000
775, 0.15200000, 0.02533333, 0.00026000
776, 0.00000000, 0.03166667, 0.00026000
777, 0.00633333, 0.03166667, 0.00026000
778, 0.01266667, 0.03166667, 0.00026000
779, 0.01900000, 0.03166667, 0.00026000
780, 0.02533333, 0.03166667, 0.00026000
781, 0.03166667, 0.03166667, 0.00026000
782, 0.03800000, 0.03166667, 0.00026000
783, 0.04433333, 0.03166667, 0.00026000
784, 0.05066667, 0.03166667, 0.00026000
785, 0.05700000, 0.03166667, 0.00026000
786, 0.06333333, 0.03166667, 0.00026000
787, 0.06966667, 0.03166667, 0.00026000
788, 0.07600000, 0.03166667, 0.00026000
789, 0.08233333, 0.03166667, 0.00026000
790, 0.08866667, 0.03166667, 0.00026000
791, 0.09500000, 0.03166667, 0.00026000
792, 0.10133333, 0.03166667, 0.00026000
793, 0.10766667, 0.03166667, 0.00026000
794, 0.11400000, 0.03166667, 0.00026000
795, 0.12033333, 0.03166667, 0.00026000
796, 0.12666667, 0.03166667, 0.00026000
797, 0.13300000, 0.03166667, 0.00026000
798, 0.13933333, 0.03166667, 0.00026000
799, 0.14566667, 0.03166667, 0.00026000
800, 0.15200000, 0.03166667, 0.00026000
801, 0.00000000, 0.03800000, 0.00026000
802, 0.00633333, 0.03800000, 0.00026000
803, 0.01266667, 0.03800000, 0.00026000
804, 0.01900000, 0.03800000, 0.00026000
805, 0.02533333, 0.03800000, 0.00026000
806, 0.03166667, 0.03800000, 0.00026000
807, 0.03800000, 0.03800000, 0.00026000
808, 0.04433333, 0.03800000, 0.00026000
809, 0.05066667, 0.03800000, 0.00026000
810, 0.05700000, 0.03800000, 0.00026000
811, 0.06333333, 0.03800000, 0.00026000
812, 0.06966667, 0.03800000, 0.00026000
813, 0.07600000, 0.03800000, 0.00026000
814, 0.08233333, 0.03800000, 0.00026000
815, 0.08866667, 0.03800000, 0.00026000
816, 0.09500000, 0.03800000, 0.00026000
817, 0.10133333, 0.03800000, 0.00026000
818, 0.10766667, 0.03800000, 0.00026000
819, 0.11400000, 0.03800000, 0.00026000
820, 0.12033333, 0.03800000, 0.00026000
821, 0.12666667, 0.03800000, 0.00026000
822, 0.13300000, 0.03800000, 0.00026000
823, 0.13933333, 0.03800000, 0.00026000
824, 0.14566667, 0.03800000, 0.00026000
825, 0.15200000, 0.03800000, 0.00026000
826, 0.00000000, 0.04433333, 0.00026000
827, 0.00633333, 0.04433333, 0.00026000
828, 0.01266667, 0.04433333, 0.00026000
829, 0.01900000, 0.04433333, 0.00026000
830, 0.02533333, 0.04433333, 0.00026000
831, 0.03166667, 0.04433333, 0.00026000
832, 0.03800000, 0.04433333, 0.00026000
833, 0.04433333, 0.04433333, 0.00026000
834, 0.05066667, 0.04433333, 0.00026000
835, 0.05700000, 0.04433333, 0.00026000
836, 0.06333333, 0.04433333, 0.00026000
837, 0.06966667, 0.04433333, 0.00026000
838, 0.07600000, 0.04433333, 0.00026000
839, 0.08233333, 0.04433333, 0.00026000
840, 0.08866667, 0.04433333, 0.00026000
841, 0.09500000, 0.04433333, 0.00026000
842, 0.10133333, 0.04433333, 0.00026000
843, 0.10766667, 0.04433333, 0.00026000
844, 0.11400000, 0.04433333, 0.00026000
845, 0.12033333, 0.04433333, 0.00026000
846, 0.12666667, 0.04433333, 0.00026000
847, 0.13300000, 0.04433333, 0.00026000
848, 0.13933333, 0.04433333, 0.00026000
849, 0.14566667, 0.04433333, 0.00026000
850, 0.15200000, 0.04433333, 0.00026000
851, 0.00000000, 0.05066667, 0.00026000
852, 0.00633333, 0.05066667, 0.00026000
853, 0.01266667, 0.05066667, 0.00026000
854, 0.01900000, 0.05066667, 0.00026000
855, 0.02533333, 0.05066667, 0.00026000
856, 0.03166667, 0.05066667, 0.00026000
857, 0.03800000, 0.05066667, 0.00026000
858, 0.04433333, 0.05066667, 0.00026000
859, 0.05066667, 0.05066667, 0.00026000
860, 0.05700000, 0.05066667, 0.00026000
861, 0.06333333, 0.05066667, 0.00026000
862, 0.06966667, 0.05066667, 0.00026000
863, 0.07600000, 0.05066667, 0.00026000
864, 0.08233333, 0.05066667, 0.00026000
865, 0.08866667, 0.05066667, 0.00026000
866, 0.09500000, 0.05066667, 0.00026000
867, 0.10133333, 0.05066667, 0.00026000
868, 0.10766667, 0.05066667, 0.00026000
869, 0.11400000, 0.05066667, 0.00026000
870, 0.12033333, 0.05066667, 0.00026000
871, 0.12666667, 0.05066667, 0.00026000
872, 0.13300000, 0.05066667, 0.00026000
873, 0.13933333, 0.05066667, 0.00026000
874, 0.14566667, 0.05066667, 0.00026000
875, 0.15200000, 0.05066667, 0.00026000
876, 0.00000000, 0.05700000, 0.00026000
877, 0.00633333, 0.05700000, 0.00026000
878, 0.01266667, 0.05700000, 0.00026000
879, 0.01900000, 0.05700000, 0.00026000
880, 0.02533333, 0.05700000, 0.00026000
881, 0.03166667, 0.05700000, 0.00026000
882, 0.03800000, 0.05700000, 0.00026000
883, 0.04433333, 0.05700000, 0.00026000
884, 0.05066667, 0.05700000, 0.00026000
885, 0.05700000, 0.05700000, 0.00026000
886, 0.06333333, 0.05700000, 0.00026000
887, 0.06966667, 0.05700000, 0.00026000
888, 0.07600000, 0.05700000, 0.00026000
889, 0.08233333, 0.05700000, 0.00026000
890, 0.08866667, 0.05700000, 0.00026000
891, 0.09500000, 0.05700000, 0.00026000
892, 0.10133333, 0.05700000, 0.00026000
893, 0.10766667, 0.05700000, 0.00026000
894, 0.11400000, 0.05700000, 0.00026000
895, 0.12033333, 0.05700000, 0.00026000
896, 0.12666667, 0.05700000, 0.00026000
897, 0.13300000, 0.05700000, 0.00026000
898, 0.13933333, 0.05700000, 0.00026000
899, 0.14566667, 0.05700000, 0.00026000
900, 0.15200000, 0.05700000, 0.00026000
901, 0.00000000, 0.06333333, 0.00026000
902, 0.00633333, 0.06333333, 0.00026000
903, 0.01266667, 0.06333333, 0.00026000
904, 0.01900000, 0.06333333, 0.00026000
905, 0.02533333, 0.06333333, 0.00026000
906, 0.03166667, 0.06333333, 0.00026000
907, 0.03800000, 0.06333333, 0.00026000
908, 0.04433333, 0.06333333, 0.00026000
909, 0.05066667, 0.06333333, 0.00026000
910, 0.05700000, 0.06333333, 0.00026000
911, 0.06333333, 0.06333333, 0.00026000
912, 0.06966667, 0.06333333, 0.00026000
913, 0.07600000, 0.06333333, 0.00026000
914, 0.08233333, 0.06333333, 0.00026000
915, 0.08866667, 0.06333333, 0.00026000
916, 0.09500000, 0.06333333, 0.00026000
917, 0.10133333, 0.06333333, 0.00026000
918, 0.10766667, 0.06333333, 0.00026000
919, 0.11400000, 0.06333333, 0.00026000
920, 0.12033333, 0.06333333, 0.00026000
921, 0.12666667, 0.06333333, 0.00026000
922, 0.13300000, 0.06333333, 0.00026000
923, 0.13933333, 0.06333333, 0.00026000
924, 0.14566667, 0.06333333, 0.00026000
925, 0.15200000, 0.06333333, 0.00026000
926, 0.00000000, 0.06966667, 0.00026000
927, 0.00633333, 0.06966667, 0.00026000
928, 0.01266667, 0.06966667, 0.00026000
929, 0.01900000, 0.06966667, 0.00026000
930, 0.02533333, 0.06966667, 0.00026000
931, 0.03166667, 0.06966667, 0.00026000
932, 0.03800000, 0.06966667, 0.00026000
933, 0.04433333, 0.06966667, 0.00026000
934, 0.05066667, 0.06966667, 0.00026000
935, 0.05700000, 0.06966667, 0.00026000
936, 0.06333333, 0.06966667, 0.00026000
937, 0.06966667, 0.06966667, 0.00026000
938, 0.07600000, 0.06966667, 0.00026000
939, 0.08233333, 0.06966667, 0.00026000
940, 0.08866667, 0.06966667, 0.00026000
941, 0.09500000, 0.06966667, 0.00026000
942, 0.10133333, 0.06966667, 0.00026000
943, 0.10766667, 0.06966667, 0.00026000
944, 0.11400000, 0.06966667, 0.00026000
945, 0.12033333, 0.06966667, 0.00026000
946, 0.12666667, 0.06966667, 0.00026000
947, 0.13300000, 0.06966667, 0.00026000
948, 0.13933333, 0.06966667, 0.00026000
949, 0.14566667, 0.06966667, 0.00026000
950, 0.15200000, 0.06966667, 0.00026000
951, 0.00000000, 0.07600000, 0.00026000
952, 0.00633333, 0.07600000, 0.00026000
953, 0.01266667, 0.07600000, 0.00026000
954, 0.01900000, 0.07600000, 0.00026000
955, 0.02533333, 0.07600000, 0.00026000
956, 0.03166667, 0.07600000, 0.00026000
957, 0.03800000, 0.07600000, 0.00026000
958, 0.04433333, 0.07600000, 0.00026000
959, 0.05066667, 0.07600000, 0.00026000
960, 0.05700000, 0.07600000, 0.00026000
961, 0.06333333, 0.07600000, 0.00026000
962, 0.06966667, 0.07600000, 0.00026000
963, 0.07600000, 0.07600000, 0.00026000
964, 0.08233333, 0.07600000, 0.00026000
965, 0.08866667, 0.07600000, 0.00026000
966, 0.09500000, 0.07600000, 0.00026000
967, 0.10133333, 0.07600000, 0.00026000
968, 0.10766667, 0.07600000, 0.00026000
969, 0.11400000, 0.07600000, 0.00026000
970, 0.12033333, 0.07600000, 0.00026000
971, 0.12666667, 0.07600000, 0.00026000
972, 0.13300000, 0.07600000, 0.00026000
973, 0.13933333, 0.07600000, 0.00026000
974, 0.14566667, 0.07600000, 0.00026000
975, 0.15200000, 0.07600000, 0.00026000
976, 0.00000000, 0.00000000, 0.00039000
977, 0.00633333, 0.00000000, 0.00039000
978, 0.01266667, 0.00000000, 0.00039000
979, 0.01900000, 0.00000000, 0.00039000
980, 0.02533333, 0.00000000, 0.00039000
981, 0.03166667, 0.00000000, 0.00039000
982, 0.03800000, 0.00000000, 0.00039000
983, 0.04433333, 0.00000000, 0.00039000
984, 0.05066667, 0.00000000, 0.00039000
985, 0.05700000, 0.00000000, 0.00039000
986, 0.06333333, 0.00000000, 0.00039000
987, 0.06966667, 0.00000000, 0.00039000
988, 0.07600000, 0.00000000, 0.00039000
989, 0.08233333, 0.00000000, 0.00039000
990, 0.08866667, 0.00000000, 0.00039000
991, 0.09500000, 0.00000000, 0.00039000
992, 0.10133333, 0.00000000, 0.00039000
993, 0.10766667, 0.00000000, 0.00039000
994, 0.11400000, 0.00000000, 0.00039000
995, 0.12033333, 0.00000000, 0.00039000
996, 0.12666667, 0.00000000, 0.00039000
997, 0.13300000, 0.00000000, 0.00039000
998, 0.13933333, 0.00000000, 0.00039000
999, 0.14566667, 0.00000000, 0.00039000
1000, 0.15200000, 0.00000000, 0.00039000
1001, 0.00000000, 0.00633333, 0.00039000
1002, 0.00633333, 0.00633333, 0.00039000
1003, 0.01266667, 0.00633333, 0.00039000
1004, 0.01900000, 0.00633333, 0.00039000
1005, 0.02533333, 0.00633333, 0.00039000
1006, 0.03166667, 0.00633333, 0.00039000
1007, 0.03800000, 0.00633333, 0.00039000
1008, 0.04433333, 0.00633333, 0.00039000
1009, 0.05066667, 0.00633333, 0.00039000
1010, 0.05700000, 0.00633333, 0.00039000
1011, 0.06333333, 0.00633333, 0.00039000
1012, 0.06966667, 0.00633333, 0.00039000
1013, 0.07600000, 0.00633333, 0.00039000
1014, 0.08233333, 0.00633333, 0.00039000
1015, 0.08866667, 0.00633333, 0.00039000
1016, 0.09500000, 0.00633333, 0.00039000
1017, 0.10133333, 0.00633333, 0.00039000
1018, 0.10766667, 0.00633333, 0.00039000
1019, 0.11400000, 0.00633333, 0.00039000
1020, 0.12033333, 0.00633333, 0.00039000
1021, 0.12666667, 0.00633333, 0.00039000
1022, 0.13300000, 0.00633333, 0.00039000
1023, 0.13933333, 0.00633333, 0.00039000
1024, 0.14566667, 0.00633333, 0.00039000
1025, 0.15200000, 0.00633333, 0.00039000
1026, 0.00000000, 0.01266667, 0.00039000
1027, 0.00633333, 0.01266667, 0.00039000
1028, 0.01266667, 0.01266667, 0.00039000
1029, 0.01900000, 0.01266667, 0.00039000
1030, 0.02533333, 0.01266667, 0.00039000
1031, 0.03166667, 0.01266667, 0.00039000
1032, 0.03800000, 0.01266667, 0.00039000
1033, 0.04433333, 0.01266667, 0.00039000
1034, 0.05066667, 0.01266667, 0.00039000
1035, 0.05700000, 0.01266667, 0.00039000
1036, 0.06333333, 0.01266667, 0.00039000
1037, 0.06966667, 0.01266667, 0.00039000
1038, 0.07600000, 0.01266667, 0.00039000
1039, 0.08233333, 0.01266667, 0.00039000
1040, 0.08866667, 0.01266667, 0.00039000
1041, 0.09500000, 0.01266667, 0.00039000
1042, 0.10133333, 0.01266667, 0.00039000
1043, 0.10766667, 0.01266667, 0.00039000
1044, 0.11400000, 0.01266667, 0.00039000
1045, 0.12033333, 0.01266667, 0.00039000
1046, 0.12666667, 0.01266667, 0.00039000
1047, 0.13300000, 0.01266667, 0.00039000
1048, 0.13933333, 0.01266667, 0.00039000
1049, 0.14566667, 0.01266667, 0.00039000
1050, 0.15200000, 0.01266667, 0.00039000
1051, 0.00000000, 0.01900000, 0.00039000
1052, 0.00633333, 0.01900000, 0.00039000
1053, 0.01266667, 0.01900000, 0.00039000
1054, 0.01900000, 0.01900000, 0.00039000
1055, 0.02533333, 0.01900000, 0.00039000
1056, 0.03166667, 0.01900000, 0.00039000
1057, 0.03800000, 0.01900000, 0.00039000
1058, 0.04433333, 0.01900000, 0.00039000
1059, 0.05066667, 0.01900000, 0.00039000
1060, 0.05700000, 0.01900000, 0.00039000
1061, 0.06333333, 0.01900000, 0.00039000
1062, 0.06966667, 0.01900000, 0.00039000
1063, 0.07600000, 0.01900000, 0.00039000
1064, 0.08233333, 0.01900000, 0.00039000
1065, 0.08866667, 0.01900000, 0.00039000
1066, 0.09500000, 0.01900000, 0.00039000
1067, 0.10133333, 0.01900000, 0.00039000
1068, 0.10766667, 0.01900000, 0.00039000
1069, 0.11400000, 0.01900000, 0.00039000
1070, 0.12033333, 0.01900000, 0.00039000
1071, 0.12666667, 0.01900000, 0.00039000
1072, 0.13300000, 0.01900000, 0.00039000
1073, 0.13933333, 0.01900000, 0.00039000
1074, 0.14566667, 0.01900000, 0.00039000
1075, 0.15200000, 0.01900000, 0.00039000
1076, 0.00000000, 0.02533333, 0.00039000
1077, 0.00633333, 0.02533333, 0.00039000
1078, 0.01266667, 0.02533333, 0.00039000
1079, 0.01900000, 0.02533333, 0.00039000
1080, 0.02533333, 0.02533333, 0.00039000
1081, 0.03166667, 0.02533333, 0.00039000
1082, 0.03800000, 0.02533333, 0.00039000
1083, 0.04433333, 0.02533333, 0.00039000
1084, 0.05066667, 0.02533333, 0.00039000
1085, 0.05700000, 0.02533333, 0.00039000
1086, 0.06333333, 0.02533333, 0.00039000
1087, 0.06966667, 0.02533333, 0.00039000
1088, 0.07600000, 0.02533333, 0.00039000
1089, 0.08233333, 0.02533333, 0.00039000
1090, 0.08866667, 0.02533333, 0.00039000
1091, 0.09500000, 0.02533333, 0.00039000
1092, 0.10133333, 0.02533333, 0.00039000
1093, 0.10766667, 0.02533333, 0.00039000
1094, 0.11400000, 0.02533333, 0.00039000
1095, 0.12033333, 0.02533333, 0.00039000
1096, 0.12666667, 0.02533333, 0.00039000
1097, 0.13300000, 0.02533333, 0.00039000
1098, 0.13933333, 0.02533333, 0.00039000
1099, 0.14566667, 0.02533333, 0.00039000
1100, 0.15200000, 0.02533333, 0.00039000
1101, 0.00000000, 0.03166667, 0.00039000
1102, 0.00633333, 0.03166667, 0.00039000
1103, 0.01266667, 0.03166667, 0.00039000
1104, 0.01900000, 0.03166667, 0.00039000
1105, 0.02533333, 0.03166667, 0.00039000
1106, 0.03166667, 0.03166667, 0.00039000
1107, 0.03800000, 0.03166667, 0.00039000
1108, 0.04433333, 0.03166667, 0.00039000
1109, 0.05066667, 0.03166667, 0.00039000
1110, 0.05700000, 0.03166667, 0.00039000
1111, 0.06333333, 0.03166667, 0.00039000
1112, 0.06966667, 0.03166667, 0.00039000
1113, 0.07600000, 0.03166667, 0.00039000
1114, 0.08233333, 0.03166667, 0.00039000
1115, 0.08866667, 0.03166667, 0.00039000
1116, 0.09500000, 0.03166667, 0.00039000
1117, 0.10133333, 0.03166667, 0.00039000
1118, 0.10766667, 0.03166667, 0.00039000
1119, 0.11400000, 0.03166667, 0.00039000
1120, 0.12033333, 0.03166667, 0.00039000
1121, 0.12666667, 0.03166667, 0.00039000
1122, 0.13300000, 0.03166667, 0.00039000
1123, 0.13933333, 0.03166667, 0.00039000
1124, 0.14566667, 0.03166667, 0.00039000
1125, 0.15200000, 0.03166667, 0.00039000
1126, 0.00000000, 0.03800000, 0.00039000
1127, 0.00633333, 0.03800000, 0.00039000
1128, 0.01266667, 0.03800000, 0.00039000
1129, 0.01900000, 0.03800000, 0.00039000
1130, 0.02533333, 0.03800000, 0.00039000
1131, 0.03166667, 0.03800000, 0.00039000
1132, 0.03800000, 0.03800000, 0.00039000
1133, 0.04433333, 0.03800000, 0.00039000
1134, 0.05066667, 0.03800000, 0.00039000
1135, 0.05700000, 0.03800000, 0.00039000
1136, 0.06333333, 0.03800000, 0.00039000
1137, 0.06966667, 0.03800000, 0.00039000
1138, 0.07600000, 0.03800000, 0.00039000
1139, 0.08233333, 0.03800000, 0.00039000
1140, 0.08866667, 0.03800000, 0.00039000
1141, 0.09500000, 0.03800000, 0.00039000
1142, 0.10133333, 0.03800000, 0.00039000
1143, 0.10766667, 0.03800000, 0.00039000
1144, 0.11400000, 0.03800000, 0.00039000
1145, 0.12033333, 0.03800000, 0.00039000
1146, 0.12666667, 0.03800000, 0.00039000
1147, 0.13300000, 0.03800000, 0.00039000
1148, 0.13933333, 0.03800000, 0.00039000
1149, 0.14566667, 0.03800000, 0.00039000
1150, 0.15200000, 0.03800000, 0.00039000
1151, 0.00000000, 0.04433333, 0.00039000
1152, 0.00633333, 0.04433333, 0.00039000
1153, 0.01266667, 0.04433333, 0.00039000
1154, 0.01900000, 0.04433333, 0.00039000
1155, 0.02533333, 0.04433333, 0.00039000
1156, 0.03166667, 0.04433333, 0.00039000
1157, 0.03800000, 0.04433333, 0.00039000
1158, 0.04433333, 0.04433333, 0.00039000
1159, 0.05066667, 0.04433333, 0.00039000
1160, 0.05700000, 0.04433333, 0.00039000
1161, 0.06333333, 0.04433333, 0.00039000
1162, 0.06966667, 0.04433333, 0.00039000
1163, 0.07600000, 0.04433333, 0.00039000
1164, 0.08233333, 0.04433333, 0.00039000
1165, 0.08866667, 0.04433333, 0.00039000
1166, 0.09500000, 0.04433333, 0.00039000
1167, 0.10133333, 0.04433333, 0.00039000
1168, 0.10766667, 0.04433333, 0.00039000
1169, 0.11400000, 0.04433333, 0.00039000
1170, 0.12033333, 0.04433333, 0.00039000
1171, 0.12666667, 0.04433333, 0.00039000
1172, 0.13300000, 0.04433333, 0.00039000
1173, 0.13933333, 0.04433333, 0.00039000
1174, 0.14566667, 0.04433333, 0.00039000
1175, 0.15200000, 0.04433333, 0.00039000
1176, 0.00000000, 0.05066667, 0.00039000
1177, 0.00633333, 0.05066667, 0.00039000
1178, 0.01266667, 0.05066667, 0.00039000
1179, 0.01900000, 0.05066667, 0.00039000
1180, 0.02533333, 0.05066667, 0.00039000
1181, 0.03166667, 0.05066667, 0.00039000
1182, 0.03800000, 0.05066667, 0.00039000
1183, 0.04433333, 0.05066667, 0.00039000
1184, 0.05066667, 0.05066667, 0.00039000
1185, 0.05700000, 0.05066667, 0.00039000
1186, 0.06333333, 0.05066667, 0.00039000
1187, 0.06966667, 0.05066667, 0.00039000
1188, 0.07600000, 0.05066667, 0.00039000
1189, 0.08233333, 0.05066667, 0.00039000
1190, 0.08866667, 0.05066667, 0.00039000
1191, 0.09500000, 0.05066667, 0.00039000
1192, 0.10133333, 0.05066667, 0.00039000
1193, 0.10766667, 0.05066667, 0.00039000
1194, 0.11400000, 0.05066667, 0.00039000
1195, 0.12033333, 0.05066667, 0.00039000
1196, 0.12666667, 0.05066667, 0.00039000
1197, 0.13300000, 0.05066667, 0.00039000
1198, 0.13933333, 0.05066667, 0.00039000
1199, 0.14566667, 0.05066667, 0.00039000
1200, 0.15200000, 0.05066667, 0.00039000
1201, 0.00000000, 0.05700000, 0.00039000
1202, 0.00633333, 0.05700000, 0.00039000
1203, 0.01266667, 0.05700000, 0.00039000
1204, 0.01900000, 0.05700000, 0.00039000
1205, 0.02533333, 0.05700000, 0.00039000
1206, 0.03166667, 0.05700000, 0.00039000
1207, 0.03800000, 0.05700000, 0.00039000
1208, 0.04433333, 0.05700000, 0.00039000
1209, 0.05066667, 0.05700000, 0.00039000
1210, 0.05700000, 0.05700000, 0.00039000
1211, 0.06333333, 0.05700000, 0.00039000
1212, 0.06966667, 0.05700000, 0.00039000
1213, 0.07600000, 0.05700000, 0.00039000
1214, 0.08233333, 0.05700000, 0.00039000
1215, 0.08866667, 0.05700000, 0.00039000
1216, 0.09500000, 0.05700000, 0.00039000
1217, 0.10133333, 0.05700000, 0.00039000
1218, 0.10766667, 0.05700000, 0.00039000
1219, 0.11400000, 0.05700000, 0.00039000
1220, 0.12033333, 0.05700000, 0.00039000
1221, 0.12666667, 0.05700000, 0.00039000
1222, 0.13300000, 0.05700000, 0.00039000
1223, 0.13933333, 0.05700000, 0.00039000
1224, 0.14566667, 0.05700000, 0.00039000
1225, 0.15200000, 0.05700000, 0.00039000
1226, 0.00000000, 0.06333333, 0.00039000
1227, 0.00633333, 0.06333333, 0.00039000
1228, 0.01266667, 0.06333333, 0.00039000
1229, 0.01900000, 0.06333333, 0.00039000
1230, 0.02533333, 0.06333333, 0.00039000
1231, 0.03166667, 0.06333333, 0.00039000
1232, 0.03800000, 0.06333333, 0.00039000
1233, 0.04433333, 0.06333333, 0.00039000
1234, 0.05066667, 0.06333333, 0.00039000
1235, 0.05700000, 0.06333333, 0.00039000
1236, 0.06333333, 0.06333333, 0.00039000
1237, 0.06966667, 0.06333333, 0.00039000
1238, 0.07600000, 0.06333333, 0.00039000
1239, 0.08233333, 0.06333333, 0.00039000
1240, 0.08866667, 0.06333333, 0.00039000
1241, 0.09500000, 0.06333333, 0.00039000
1242, 0.10133333, 0.06333333, 0.00039000
1243, 0.10766667, 0.06333333, 0.00039000
1244, 0.11400000, 0.06333333, 0.00039000
1245, 0.12033333, 0.06333333, 0.00039000
1246, 0.12666667, 0.06333333, 0.00039000
1247, 0.13300000, 0.06333333, 0.00039000
1248, 0.13933333, 0.06333333, 0.00039000
1249, 0.14566667, 0.06333333, 0.00039000
1250, 0.15200000, 0.06333333, 0.00039000
1251, 0.00000000, 0.06966667, 0.00039000
1252, 0.00633333, 0.06966667, 0.00039000
1253, 0.01266667, 0.06966667, 0.00039000
1254, 0.01900000, 0.06966667, 0.00039000
1255, 0.02533333, 0.06966667, 0.00039000
1256, 0.03166667, 0.06966667, 0.00039000
1257, 0.03800000, 0.06966667, 0.00039000
1258, 0.04433333, 0.06966667, 0.00039000
1259, 0.05066667, 0.06966667, 0.00039000
1260, 0.05700000, 0.06966667, 0.00039000
1261, 0.06333333, 0.06966667, 0.00039000
1262, 0.06966667, 0.06966667, 0.00039000
1263, 0.07600000, 0.06966667, 0.00039000
1264, 0.08233333, 0.06966667, 0.00039000
1265, 0.08866667, 0.06966667, 0.00039000
1266, 0.09500000, 0.06966667, 0.00039000
1267, 0.10133333, 0.06966667, 0.00039000
1268, 0.10766667, 0.06966667, 0.00039000
1269, 0.11400000, 0.06966667, 0.00039000
1270, 0.12033333, 0.06966667, 0.00039000
1271, 0.12666667, 0.06966667, 0.00039000
1272, 0.13300000, 0.06966667, 0.00039000
1273, 0.13933333, 0.06966667, 0.00039000
1274, 0.14566667, 0.06966667, 0.00039000
1275, 0.15200000, 0.06966667, 0.00039000
1276, 0.00000000, 0.07600000, 0.00039000
1277, 0.00633333, 0.07600000, 0.00039000
1278, 0.01266667, 0.07600000, 0.00039000
1279, 0.01900000, 0.07600000, 0.00039000
1280, 0.02533333, 0.07600000, 0.00039000
1281, 0.03166667, 0.07600000, 0.00039000
1282, 0.03800000, 0.07600000, 0.00039000
1283, 0.04433333, 0.07600000, 0.00039000
1284, 0.05066667, 0.07600000, 0.00039000
1285, 0.05700000, 0.07600000, 0.00039000
1286, 0.06333333, 0.07600000, 0.00039000
1287, 0.06966667, 0.07600000, 0.00039000
1288, 0.07600000, 0.07600000, 0.00039000
1289, 0.08233333, 0.07600000, 0.00039000
1290, 0.08866667, 0.07600000, 0.00039000
1291, 0.09500000, 0.07600000, 0.00039000
1292, 0.10133333, 0.07600000, 0.00039000
1293, 0.10766667, 0.07600000, 0.00039000
1294, 0.11400000, 0.07600000, 0.00039000
1295, 0.12033333, 0.07600000, 0.00039000
1296, 0.12666667, 0.07600000, 0.00039000
1297, 0.13300000, 0.07600000, 0.00039000
1298, 0.13933333, 0.07600000, 0.00039000
1299, 0.14566667, 0.07600000, 0.00039000
1300, 0.15200000, 0.07600000, 0.00039000
1301, 0.00000000, 0.00000000, 0.00052000
1302, 0.00633333, 0.00000000, 0.00052000
1303, 0.01266667, 0.00000000, 0.00052000
1304, 0.01900000, 0.00000000, 0.00052000
1305, 0.02533333, 0.00000000, 0.00052000
1306, 0.03166667, 0.00000000, 0.00052000
1307, 0.03800000, 0.00000000, 0.00052000
1308, 0.04433333, 0.00000000, 0.00052000
1309, 0.05066667, 0.00000000, 0.00052000
1310, 0.05700000, 0.00000000, 0.00052000
1311, 0.06333333, 0.00000000, 0.00052000
1312, 0.06966667, 0.00000000, 0.00052000
1313, 0.07600000, 0.00000000, 0.00052000
1314, 0.08233333, 0.00000000, 0.00052000
1315, 0.08866667, 0.00000000, 0.00052000
1316, 0.09500000, 0.00000000, 0.00052000
1317, 0.10133333, 0.00000000, 0.00052000
1318, 0.10766667, 0.00000000, 0.00052000
1319, 0.11400000, 0.00000000, 0.00052000
1320, 0.12033333, 0.00000000, 0.00052000
1321, 0.12666667, 0.00000000, 0.00052000
1322, 0.13300000, 0.00000000, 0.00052000
1323, 0.13933333, 0.00000000, 0.00052000
1324, 0.14566667, 0.00000000, 0.00052000
1325, 0.15200000, 0.00000000, 0.00052000
1326, 0.00000000, 0.00633333, 0.00052000
1327, 0.00633333, 0.00633333, 0.00052000
1328, 0.01266667, 0.00633333, 0.00052000
1329, 0.01900000, 0.00633333, 0.00052000
1330, 0.02533333, 0.00633333, 0.00052000
1331, 0.03166667, 0.00633333, 0.00052000
1332, 0.03800000, 0.00633333, 0.00052000
1333, 0.04433333, 0.00633333, 0.00052000
1334, 0.05066667, 0.00633333, 0.00052000
1335, 0.05700000, 0.00633333, 0.00052000
1336, 0.06333333, 0.00633333, 0.00052000
1337, 0.06966667, 0.00633333, 0.00052000
1338, 0.07600000, 0.00633333, 0.00052000
1339, 0.08233333, 0.00633333, 0.00052000
1340, 0.08866667, 0.00633333, 0.00052000
1341, 0.09500000, 0.00633333, 0.00052000
1342, 0.10133333, 0.00633333, 0.00052000
1343, 0.10766667, 0.00633333, 0.00052000
1344, 0.11400000, 0.00633333, 0.00052000
1345, 0.12033333, 0.00633333, 0.00052000
1346, 0.12666667, 0.00633333, 0.00052000
1347, 0.13300000, 0.00633333, 0.00052000
1348, 0.13933333, 0.00633333, 0.00052000
1349, 0.14566667, 0.00633333, 0.00052000
1350, 0.15200000, 0.00633333, 0.00052000
1351, 0.00000000, 0.01266667, 0.00052000
1352, 0.00633333, 0.01266667, 0.00052000
1353, 0.01266667, 0.01266667, 0.00052000
1354, 0.01900000, 0.01266667, 0.00052000
1355, 0.02533333, 0.01266667, 0.00052000
1356, 0.03166667, 0.01266667, 0.00052000
1357, 0.03800000, 0.01266667, 0.00052000
1358, 0.04433333, 0.01266667, 0.00052000
1359, 0.05066667, 0.01266667, 0.00052000
1360, 0.05700000, 0.01266667, 0.00052000
1361, 0.06333333, 0.01266667, 0.00052000
1362, 0.06966667, 0.01266667, 0.00052000
1363, 0.07600000, 0.01266667, 0.00052000
1364, 0.08233333, 0.01266667, 0.00052000
1365, 0.08866667, 0.01266667, 0.00052000
1366, 0.09500000, 0.01266667, 0.00052000
1367, 0.10133333, 0.01266667, 0.00052000
1368, 0.10766667, 0.01266667, 0.00052000
1369, 0.11400000, 0.01266667, 0.00052000
1370, 0.12033333, 0.01266667, 0.00052000
1371, 0.12666667, 0.01266667, 0.00052000
1372, 0.13300000, 0.01266667, 0.00052000
1373, 0.13933333, 0.01266667, 0.00052000
1374, 0.14566667, 0.01266667, 0.00052000
1375, 0.15200000, 0.01266667, 0.00052000
1376, 0.00000000, 0.01900000, 0.00052000
1377, 0.00633333, 0.01900000, 0.00052000
1378, 0.01266667, 0.01900000, 0.00052000
1379, 0.01900000, 0.01900000, 0.00052000
1380, 0.02533333, 0.01900000, 0.00052000
1381, 0.03166667, 0.01900000, 0.00052000
1382, 0.03800000, 0.01900000, 0.00052000
1383, 0.04433333, 0.01900000, 0.00052000
1384, 0.05066667, 0.01900000, 0.00052000
1385, 0.05700000, 0.01900000, 0.00052000
1386, 0.06333333, 0.01900000, 0.00052000
1387, 0.06966667, 0.01900000, 0.00052000
1388, 0.07600000, 0.01900000, 0.00052000
1389, 0.08233333, 0.01900000, 0.00052000
1390, 0.08866667, 0.01900000, 0.00052000
1391, 0.09500000, 0.01900000, 0.00052000
1392, 0.10133333, 0.01900000, 0.00052000
1393, 0.10766667, 0.01900000, 0.00052000
1394, 0.11400000, 0.01900000, 0.00052000
1395, 0.12033333, 0.01900000, 0.00052000
1396, 0.12666667, 0.01900000, 0.00052000
1397, 0.13300000, 0.01900000, 0.00052000
1398, 0.13933333, 0.01900000, 0.00052000
1399, 0.14566667, 0.01900000, 0.00052000
1400, 0.15200000, 0.01900000, 0.00052000
1401, 0.00000000, 0.02533333, 0.00052000
1402, 0.00633333, 0.02533333, 0.00052000
1403, 0.01266667, 0.02533333, 0.00052000
1404, 0.01900000, 0.02533333, 0.00052000
1405, 0.02533333, 0.02533333, 0.00052000
1406, 0.03166667, 0.02533333, 0.00052000
1407, 0.03800000, 0.02533333, 0.00052000
1408, 0.04433333, 0.02533333, 0.00052000
1409, 0.05066667, 0.02533333, 0.00052000
1410, 0.05700000, 0.02533333, 0.00052000
1411, 0.06333333, 0.02533333, 0.00052000
1412, 0.06966667, 0.02533333, 0.00052000
1413, 0.07600000, 0.02533333, 0.00052000
1414, 0.08233333, 0.02533333, 0.00052000
1415, 0.08866667, 0.02533333, 0.00052000
1416, 0.09500000, 0.02533333, 0.00052000
1417, 0.10133333, 0.02533333, 0.00052000
1418, 0.10766667, 0.02533333, 0.00052000
1419, 0.11400000, 0.02533333, 0.00052000
1420, 0.12033333, 0.02533333, 0.00052000
1421, 0.12666667, 0.02533333, 0.00052000
1422, 0.13300000, 0.02533333, 0.00052000
1423, 0.13933333, 0.02533333, 0.00052000
1424, 0.14566667, 0.02533333, 0.00052000
1425, 0.15200000, 0.02533333, 0.00052000
1426, 0.00000000, 0.03166667, 0.00052000
1427, 0.00633333, 0.03166667, 0.00052000
1428, 0.01266667, 0.03166667, 0.00052000
1429, 0.01900000, 0.03166667, 0.00052000
1430, 0.02533333, 0.03166667, 0.00052000
1431, 0.03166667, 0.03166667, 0.00052000
1432, 0.03800000, 0.03166667, 0.00052000
1433, 0.04433333, 0.03166667, 0.00052000
1434, 0.05066667, 0.03166667, 0.00052000
1435, 0.05700000, 0.03166667, 0.00052000
1436, 0.06333333, 0.03166667, 0.00052000
1437, 0.06966667, 0.03166667, 0.00052000
1438, 0.07600000, 0.03166667, 0.00052000
1439, 0.08233333, 0.03166667, 0.00052000
1440, 0.08866667, 0.03166667, 0.00052000
1441, 0.09500000, 0.03166667, 0.00052000
1442, 0.10133333, 0.03166667, 0.00052000
1443, 0.10766667, 0.03166667, 0.00052000
1444, 0.11400000, 0.03166667, 0.00052000
1445, 0.12033333, 0.03166667, 0.00052000
1446, 0.12666667, 0.03166667, 0.00052000
1447, 0.13300000, 0.03166667, 0.00052000
1448, 0.13933333, 0.03166667, 0.00052000
1449, 0.14566667, 0.03166667, 0.00052000
1450, 0.15200000, 0.03166667, 0.00052000
1451, 0.00000000, 0.03800000, 0.00052000
1452, 0.00633333, 0.03800000, 0.00052000
1453, 0.01266667, 0.03800000, 0.00052000
1454, 0.01900000, 0.03800000, 0.00052000
1455, 0.02533333, 0.03800000, 0.00052000
1456, 0.03166667, 0.03800000, 0.00052000
1457, 0.03800000, 0.03800000, 0.00052000
1458, 0.04433333, 0.03800000, 0.00052000
1459, 0.05066667, 0.03800000, 0.00052000
1460, 0.05700000, 0.03800000, 0.00052000
1461, 0.06333333, 0.03800000, 0.00052000
1462, 0.06966667, 0.03800000, 0.00052000
1463, 0.07600000, 0.03800000, 0.00052000
1464, 0.08233333, 0.03800000, 0.00052000
1465, 0.08866667, 0.03800000, 0.00052000
1466, 0.09500000, 0.03800000, 0.00052000
1467, 0.10133333, 0.03800000, 0.00052000
1468, 0.10766667, 0.03800000, 0.00052000
1469, 0.11400000, 0.03800000, 0.00052000
1470, 0.12033333, 0.03800000, 0.00052000
1471, 0.12666667, 0.03800000, 0.00052000
1472, 0.13300000, 0.03800000, 0.00052000
1473, 0.13933333, 0.03800000, 0.00052000
1474, 0.14566667, 0.03800000, 0.00052000
1475, 0.15200000, 0.03800000, 0.00052000
1476, 0.00000000, 0.04433333, 0.00052000
1477, 0.00633333, 0.04433333, 0.00052000
1478, 0.01266667, 0.04433333, 0.00052000
1479, 0.01900000, 0.04433333, 0.00052000
1480, 0.02533333, 0.04433333, 0.00052000
1481, 0.03166667, 0.04433333, 0.00052000
1482, 0.03800000, 0.04433333, 0.00052000
1483, 0.04433333, 0.04433333, 0.00052000
1484, 0.05066667, 0.04433333, 0.00052000
1485, 0.05700000, 0.04433333, 0.00052000
1486, 0.06333333, 0.04433333, 0.00052000
1487, 0.06966667, 0.04433333, 0.00052000
1488, 0.07600000, 0.04433333, 0.00052000
1489, 0.08233333, 0.04433333, 0.00052000
1490, 0.08866667, 0.04433333, 0.00052000
1491, 0.09500000, 0.04433333, 0.00052000
1492, 0.10133333, 0.04433333, 0.00052000
1493, 0.10766667, 0.04433333, 0.00052000
1494, 0.11400000, 0.04433333, 0.00052000
1495, 0.12033333, 0.04433333, 0.00052000
1496, 0.12666667, 0.04433333, 0.00052000
1497, 0.13300000, 0.04433333, 0.00052000
1498, 0.13933333, 0.04433333, 0.00052000
1499, 0.14566667, 0.04433333, 0.00052000
1500, 0.15200000, 0.04433333, 0.00052000
1501, 0.00000000, 0.05066667, 0.00052000
1502, 0.00633333, 0.05066667, 0.00052000
1503, 0.01266667, 0.05066667, 0.00052000
1504, 0.01900000, 0.05066667, 0.00052000
1505, 0.02533333, 0.05066667, 0.00052000
1506, 0.03166667, 0.05066667, 0.00052000
1507, 0.03800000, 0.05066667, 0.00052000
1508, 0.04433333, 0.05066667, 0.00052000
1509, 0.05066667, 0.05066667, 0.00052000
1510, 0.05700000, 0.05066667, 0.00052000
1511, 0.06333333, 0.05066667, 0.00052000
1512, 0.06966667, 0.05066667, 0.00052000
1513, 0.07600000, 0.05066667, 0.00052000
1514, 0.08233333, 0.05066667, 0.00052000
1515, 0.08866667, 0.05066667, 0.00052000
1516, 0.09500000, 0.05066667, 0.00052000
1517, 0.10133333, 0.05066667, 0.00052000
1518, 0.10766667, 0.05066667, 0.00052000
1519, 0.11400000, 0.05066667, 0.00052000
1520, 0.12033333, 0.05066667, 0.00052000
1521, 0.12666667, 0.05066667, 0.00052000
1522, 0.13300000, 0.05066667, 0.00052000
1523, 0.13933333, 0.05066667, 0.00052000
1524, 0.14566667, 0.05066667, 0.00052000
1525, 0.15200000, 0.05066667, 0.00052000
1526, 0.00000000, 0.05700000, 0.00052000
1527, 0.00633333, 0.05700000, 0.00052000
1528, 0.01266667, 0.05700000, 0.00052000
1529, 0.01900000, 0.05700000, 0.00052000
1530, 0.02533333, 0.05700000, 0.00052000
1531, 0.03166667, 0.05700000, 0.00052000
1532, 0.03800000, 0.05700000, 0.00052000
1533, 0.04433333, 0.05700000, 0.00052000
1534, 0.05066667, 0.05700000, 0.00052000
1535, 0.05700000, 0.05700000, 0.00052000
1536, 0.06333333, 0.05700000, 0.00052000
1537, 0.06966667, 0.05700000, 0.00052000
1538, 0.07600000, 0.05700000, 0.00052000
1539, 0.08233333, 0.05700000, 0.00052000
1540, 0.08866667, 0.05700000, 0.00052000
1541, 0.09500000, 0.05700000, 0.00052000
1542, 0.10133333, 0.05700000, 0.00052000
1543, 0.10766667, 0.05700000, 0.00052000
1544, 0.11400000, 0.05700000, 0.00052000
1545, 0.12033333, 0.05700000, 0.00052000
1546, 0.12666667, 0.05700000, 0.00052000
1547, 0.13300000, 0.05700000, 0.00052000
1548, 0.13933333, 0.05700000, 0.00052000
1549, 0.14566667, 0.05700000, 0.00052000
1550, 0.15200000, 0.05700000, 0.00052000
1551, 0.00000000, 0.06333333, 0.00052000
1552, 0.00633333, 0.06333333, 0.00052000
1553, 0.01266667, 0.06333333, 0.00052000
1554, 0.01900000, 0.06333333, 0.00052000
1555, 0.02533333, 0.06333333, 0.00052000
1556, 0.03166667, 0.06333333, 0.00052000
1557, 0.03800000, 0.06333333, 0.00052000
1558, 0.04433333, 0.06333333, 0.00052000
1559, 0.05066667, 0.06333333, 0.00052000
1560, 0.05700000, 0.06333333, 0.00052000
1561, 0.06333333, 0.06333333, 0.00052000
1562, 0.06966667, 0.06333333, 0.00052000
1563, 0.07600000, 0.06333333, 0.00052000
1564, 0.08233333, 0.06333333, 0.00052000
1565, 0.08866667, 0.06333333, 0.00052000
1566, 0.09500000, 0.06333333, 0.00052000
1567, 0.10133333, 0.06333333, 0.00052000
1568, 0.10766667, 0.06333333, 0.00052000
1569, 0.11400000, 0.06333333, 0.00052000
1570, 0.12033333, 0.06333333, 0.00052000
1571, 0.12666667, 0.06333333, 0.00052000
1572, 0.13300000, 0.06333333, 0.00052000
1573, 0.13933333, 0.06333333, 0.00052000
1574, 0.14566667, 0.06333333, 0.00052000
1575, 0.15200000, 0.06333333, 0.00052000
1576, 0.00000000, 0.06966667, 0.00052000
1577, 0.00633333, 0.06966667, 0.00052000
1578, 0.01266667, 0.06966667, 0.00052000
1579, 0.01900000, 0.06966667, 0.00052000
1580, 0.02533333, 0.06966667, 0.00052000
1581, 0.03166667, 0.06966667, 0.00052000
1582, 0.03800000, 0.06966667, 0.00052000
1583, 0.04433333, 0.06966667, 0.00052000
1584, 0.05066667, 0.06966667, 0.00052000
1585, 0.05700000, 0.06966667, 0.00052000
1586, 0.06333333, 0.06966667, 0.00052000
1587, 0.06966667, 0.06966667, 0.00052000
1588, 0.07600000, 0.06966667, 0.00052000
1589, 0.08233333, 0.06966667, 0.00052000
1590, 0.08866667, 0.06966667, 0.00052000
1591, 0.09500000, 0.06966667, 0.00052000
1592, 0.10133333, 0.06966667, 0.00052000
1593, 0.10766667, 0.06966667, 0.00052000
1594, 0.11400000, 0.06966667, 0.00052000
1595, 0.12033333, 0.06966667, 0.00052000
1596, 0.12666667, 0.06966667, 0.00052000
1597, 0.13300000, 0.06966667, 0.00052000
1598, 0.13933333, 0.06966667, 0.00052000
1599, 0.14566667, 0.06966667, 0.00052000
1600, 0.15200000, 0.06966667, 0.00052000
1601, 0.00000000, 0.07600000, 0.00052000
1602, 0.00633333, 0.07600000, 0.00052000
1603, 0.01266667, 0.07600000, 0.00052000
1604, 0.01900000, 0.07600000, 0.00052000
1605, 0.02533333, 0.07600000, 0.00052000
1606, 0.03166667, 0.07600000, 0.00052000
1607, 0.03800000, 0.07600000, 0.00052000
1608, 0.04433333, 0.07600000, 0.00052000
1609, 0.05066667, 0.07600000, 0.00052000
1610, 0.05700000, 0.07600000, 0.00052000
1611, 0.06333333, 0.07600000, 0.00052000
1612, 0.06966667, 0.07600000, 0.00052000
1613, 0.07600000, 0.07600000, 0.00052000
1614, 0.08233333, 0.07600000, 0.00052000
1615, 0.08866667, 0.07600000, 0.00052000
1616, 0.09500000, 0.07600000, 0.00052000
1617, 0.10133333, 0.07600000, 0.00052000
1618, 0.10766667, 0.07600000, 0.00052000
1619, 0.11400000, 0.07600000, 0.00052000
1620, 0.12033333, 0.07600000, 0.00052000
1621, 0.12666667, 0.07600000, 0.00052000
1622, 0.13300000, 0.07600000, 0.00052000
1623, 0.13933333, 0.07600000, 0.00052000
1624, 0.14566667, 0.07600000, 0.00052000
1625, 0.15200000, 0.07600000, 0.00052000
1626, 0.00000000, 0.00000000, 0.00152000
1627, 0.00633333, 0.00000000, 0.00152000
1628, 0.01266667, 0.00000000, 0.00152000
1629, 0.01900000, 0.00000000, 0.00152000
1630, 0.02533333, 0.00000000, 0.00152000
1631, 0.03166667, 0.00000000, 0.00152000
1632, 0.03800000, 0.00000000, 0.00152000
1633, 0.04433333, 0.00000000, 0.00152000
1634, 0.05066667, 0.00000000, 0.00152000
1635, 0.05700000, 0.00000000, 0.00152000
1636, 0.06333333, 0.00000000, 0.00152000
1637, 0.06966667, 0.00000000, 0.00152000
1638, 0.07600000, 0.00000000, 0.00152000
1639, 0.08233333, 0.00000000, 0.00152000
1640, 0.08866667, 0.00000000, 0.00152000
1641, 0.09500000, 0.00000000, 0.00152000
1642, 0.10133333, 0.00000000, 0.00152000
1643, 0.10766667, 0.00000000, 0.00152000
1644, 0.11400000, 0.00000000, 0.00152000
1645, 0.12033333, 0.00000000, 0.00152000
1646, 0.12666667, 0.00000000, 0.00152000
1647, 0.13300000, 0.00000000, 0.00152000
1648, 0.13933333, 0.00000000, 0.00152000
1649, 0.14566667, 0.00000000, 0.00152000
1650, 0.15200000, 0.00000000, 0.00152000
1651, 0.00000000, 0.00633333, 0.00152000
1652, 0.00633333, 0.00633333, 0.00152000
1653, 0.01266667, 0.00633333, 0.00152000
1654, 0.01900000, 0.00633333, 0.00152000
1655, 0.02533333, 0.00633333, 0.00152000
1656, 0.03166667, 0.00633333, 0.00152000
1657, 0.03800000, 0.00633333, 0.00152000
1658, 0.04433333, 0.00633333, 0.00152000
1659, 0.05066667, 0.00633333, 0.00152000
1660, 0.05700000, 0.00633333, 0.00152000
1661, 0.06333333, 0.00633333, 0.00152000
1662, 0.06966667, 0.00633333, 0.00152000
1663, 0.07600000, 0.00633333, 0.00152000
1664, 0.08233333, 0.00633333, 0.00152000
1665, 0.08866667, 0.00633333, 0.00152000
1666, 0.09500000, 0.00633333, 0.00152000
1667, 0.10133333, 0.00633333, 0.00152000
1668, 0.10766667, 0.00633333, 0.00152000
1669, 0.11400000, 0.00633333, 0.00152000
1670, 0.12033333, 0.00633333, 0.00152000
1671, 0.12666667, 0.00633333, 0.00152000
1672, 0.13300000, 0.00633333, 0.00152000
1673, 0.13933333, 0.00633333, 0.00152000
1674, 0.14566667, 0.00633333, 0.00152000
1675, 0.15200000, 0.00633333, 0.00152000
1676, 0.00000000, 0.01266667, 0.00152000
1677, 0.00633333, 0.01266667, 0.00152000
1678, 0.01266667, 0.01266667, 0.00152000
1679, 0.01900000, 0.01266667, 0.00152000
1680, 0.02533333, 0.01266667, 0.00152000
1681, 0.03166667, 0.01266667, 0.00152000
1682, 0.03800000, 0.01266667, 0.00152000
1683, 0.04433333, 0.01266667, 0.00152000
1684, 0.05066667, 0.01266667, 0.00152000
1685, 0.05700000, 0.01266667, 0.00152000
1686, 0.06333333, 0.01266667, 0.00152000
1687, 0.06966667, 0.01266667, 0.00152000
1688, 0.07600000, 0.01266667, 0.00152000
1689, 0.08233333, 0.01266667, 0.00152000
1690, 0.08866667, 0.01266667, 0.00152000
1691, 0.09500000, 0.01266667, 0.00152000
1692, 0.10133333, 0.01266667, 0.00152000
1693, 0.10766667, 0.01266667, 0.00152000
1694, 0.11400000, 0.01266667, 0.00152000
1695, 0.12033333, 0.01266667, 0.00152000
1696, 0.12666667, 0.01266667, 0.00152000
1697, 0.13300000, 0.01266667, 0.00152000
1698, 0.13933333, 0.01266667, 0.00152000
1699, 0.14566667, 0.01266667, 0.00152000
1700, 0.15200000, 0.01266667, 0.00152000
1701, 0.00000000, 0.01900000, 0.00152000
1702, 0.00633333, 0.01900000, 0.00152000
1703, 0.01266667, 0.01900000, 0.00152000
1704, 0.01900000, 0.01900000, 0.00152000
1705, 0.02533333, 0.01900000, 0.00152000
1706, 0.03166667, 0.01900000, 0.00152000
1707, 0.03800000, 0.01900000, 0.00152000
1708, 0.04433333, 0.01900000, 0.00152000
1709, 0.05066667, 0.01900000, 0.00152000
1710, 0.05700000, 0.01900000, 0.00152000
1711, 0.06333333, 0.01900000, 0.00152000
1712, 0.06966667, 0.01900000, 0.00152000
1713, 0.07600000, 0.01900000, 0.00152000
1714, 0.08233333, 0.01900000, 0.00152000
1715, 0.08866667, 0.01900000, 0.00152000
1716, 0.09500000, 0.01900000, 0.00152000
1717, 0.10133333, 0.01900000, 0.00152000
1718, 0.10766667, 0.01900000, 0.00152000
1719, 0.11400000, 0.01900000, 0.00152000
1720, 0.12033333, 0.01900000, 0.00152000
1721, 0.12666667, 0.01900000, 0.00152000
1722, 0.13300000, 0.01900000, 0.00152000
1723, 0.13933333, 0.01900000, 0.00152000
1724, 0.14566667, 0.01900000, 0.00152000
1725, 0.15200000, 0.01900000, 0.00152000
1726, 0.00000000, 0.02533333, 0.00152000
1727, 0.00633333, 0.02533333, 0.00152000
1728, 0.01266667, 0.02533333, 0.00152000
1729, 0.01900000, 0.02533333, 0.00152000
1730, 0.02533333, 0.02533333, 0.00152000
1731, 0.03166667, 0.02533333, 0.00152000
1732, 0.03800000, 0.02533333, 0.00152000
1733, 0.04433333, 0.02533333, 0.00152000
1734, 0.05066667, 0.02533333, 0.00152000
1735, 0.05700000, 0.02533333, 0.00152000
1736, 0.06333333, 0.02533333, 0.00152000
1737, 0.06966667, 0.02533333, 0.00152000
1738, 0.07600000, 0.02533333, 0.00152000
1739, 0.08233333, 0.02533333, 0.00152000
1740, 0.08866667, 0.02533333, 0.00152000
1741, 0.09500000, 0.02533333, 0.00152000
1742, 0.10133333, 0.02533333, 0.00152000
1743, 0.10766667, 0.02533333, 0.00152000
1744, 0.11400000, 0.02533333, 0.00152000
1745, 0.12033333, 0.02533333, 0.00152000
1746, 0.12666667, 0.02533333, 0.00152000
1747, 0.13300000, 0.02533333, 0.00152000
1748, 0.13933333, 0.02533333, 0.00152000
1749, 0.14566667, 0.02533333, 0.00152000
1750, 0.15200000, 0.02533333, 0.00152000
1751, 0.00000000, 0.03166667, 0.00152000
1752, 0.00633333, 0.03166667, 0.00152000
1753, 0.01266667, 0.03166667, 0.00152000
1754, 0.01900000, 0.03166667, 0.00152000
1755, 0.02533333, 0.03166667, 0.00152000
1756, 0.03166667, 0.03166667, 0.00152000
1757, 0.03800000, 0.03166667, 0.00152000
1758, 0.04433333, 0.03166667, 0.00152000
1759, 0.05066667, 0.03166667, 0.00152000
1760, 0.05700000, 0.03166667, 0.00152000
1761, 0.06333333, 0.03166667, 0.00152000
1762, 0.06966667, 0.03166667, 0.00152000
1763, 0.07600000, 0.03166667, 0.00152000
1764, 0.08233333, 0.03166667, 0.00152000
1765, 0.08866667, 0.03166667, 0.00152000
1766, 0.09500000, 0.03166667, 0.00152000
1767, 0.10133333, 0.03166667, 0.00152000
1768, 0.10766667, 0.03166667, 0.00152000
1769, 0.11400000, 0.03166667, 0.00152000
1770, 0.12033333, 0.03166667, 0.00152000
1771, 0.12666667, 0.03166667, 0.00152000
1772, 0.13300000, 0.03166667, 0.00152000
1773, 0.13933333, 0.03166667, 0.00152000
1774, 0.14566667, 0.03166667, 0.00152000
1775, 0.15200000, 0.03166667, 0.00152000
1776, 0.00000000, 0.03800000, 0.00152000
1777, 0.00633333, 0.03800000, 0.00152000
1778, 0.01266667, 0.03800000, 0.00152000
1779, 0.01900000, 0.03800000, 0.00152000
1780, 0.02533333, 0.03800000, 0.00152000
1781, 0.03166667, 0.03800000, 0.00152000
1782, 0.03800000, 0.03800000, 0.00152000
1783, 0.04433333, 0.03800000, 0.00152000
1784, 0.05066667, 0.03800000, 0.00152000
1785, 0.05700000, 0.03800000, 0.00152000
1786, 0.06333333, 0.03800000, 0.00152000
1787, 0.06966667, 0.03800000, 0.00152000
1788, 0.07600000, 0.03800000, 0.00152000
1789, 0.08233333, 0.03800000, 0.00152000
1790, 0.08866667, 0.03800000, 0.00152000
1791, 0.09500000, 0.03800000, 0.00152000
1792, 0.10133333, 0.03800000, 0.00152000
1793, 0.10766667, 0.03800000, 0.00152000
1794, 0.11400000, 0.03800000, 0.00152000
1795, 0.12033333, 0.03800000, 0.00152000
1796, 0.12666667, 0.03800000, 0.00152000
1797, 0.13300000, 0.03800000, 0.00152000
1798, 0.13933333, 0.03800000, 0.00152000
1799, 0.14566667, 0.03800000, 0.00152000
1800, 0.15200000, 0.03800000, 0.00152000
1801, 0.00000000, 0.04433333, 0.00152000
1802, 0.00633333, 0.04433333, 0.00152000
1803, 0.01266667, 0.04433333, 0.00152000
1804, 0.01900000, 0.04433333, 0.00152000
1805, 0.02533333, 0.04433333, 0.00152000
1806, 0.03166667, 0.04433333, 0.00152000
1807, 0.03800000, 0.04433333, 0.00152000
1808, 0.04433333, 0.04433333, 0.00152000
1809, 0.05066667, 0.04433333, 0.00152000
1810, 0.05700000, 0.04433333, 0.00152000
1811, 0.06333333, 0.04433333, 0.00152000
1812, 0.06966667, 0.04433333, 0.00152000
1813, 0.07600000, 0.04433333, 0.00152000
1814, 0.08233333, 0.04433333, 0.00152000
1815, 0.08866667, 0.04433333, 0.00152000
1816, 0.09500000, 0.04433333, 0.00152000
1817, 0.10133333, 0.04433333, 0.00152000
1818, 0.10766667, 0.04433333, 0.00152000
1819, 0.11400000, 0.04433333, 0.00152000
1820, 0.12033333, 0.04433333, 0.00152000
1821, 0.12666667, 0.04433333, 0.00152000
1822, 0.13300000, 0.04433333, 0.00152000
1823, 0.13933333, 0.04433333, 0.00152000
1824, 0.14566667, 0.04433333, 0.00152000
1825, 0.15200000, 0.04433333, 0.00152000
1826, 0.00000000, 0.05066667, 0.00152000
1827, 0.00633333, 0.05066667, 0.00152000
1828, 0.01266667, 0.05066667, 0.00152000
1829, 0.01900000, 0.05066667, 0.00152000
1830, 0.02533333, 0.05066667, 0.00152000
1831, 0.03166667, 0.05066667, 0.00152000
1832, 0.03800000, 0.05066667, 0.00152000
1833, 0.04433333, 0.05066667, 0.00152000
1834, 0.05066667, 0.05066667, 0.00152000
1835, 0.05700000, 0.05066667, 0.00152000
1836, 0.06333333, 0.05066667, 0.00152000
1837, 0.06966667, 0.05066667, 0.00152000
1838, 0.07600000, 0.05066667, 0.00152000
1839, 0.08233333, 0.05066667, 0.00152000
1840, 0.08866667, 0.05066667, 0.00152000
1841, 0.09500000, 0.05066667, 0.00152000
1842, 0.10133333, 0.05066667, 0.00152000
1843, 0.10766667, 0.05066667, 0.00152000
1844, 0.11400000, 0.05066667, 0.00152000
1845, 0.12033333, 0.05066667, 0.00152000
1846, 0.12666667, 0.05066667, 0.00152000
1847, 0.13300000, 0.05066667, 0.00152000
1848, 0.13933333, 0.05066667, 0.00152000
1849, 0.14566667, 0.05066667, 0.00152000
1850, 0.15200000, 0.05066667, 0.00152000
1851, 0.00000000, 0.05700000, 0.00152000
1852, 0.00633333, 0.05700000, 0.00152000
1853, 0.01266667, 0.05700000, 0.00152000
1854, 0.01900000, 0.05700000, 0.00152000
1855, 0.02533333, 0.05700000, 0.00152000
1856, 0.03166667, 0.05700000, 0.00152000
1857, 0.03800000, 0.05700000, 0.00152000
1858, 0.04433333, 0.05700000, 0.00152000
1859, 0.05066667, 0.05700000, 0.00152000
1860, 0.05700000, 0.05700000, 0.00152000
1861, 0.06333333, 0.05700000, 0.00152000
1862, 0.06966667, 0.05700000, 0.00152000
1863, 0.07600000, 0.05700000, 0.00152000
1864, 0.08233333, 0.05700000, 0.00152000
1865, 0.08866667, 0.05700000, 0.00152000
1866, 0.09500000, 0.05700000, 0.00152000
1867, 0.10133333, 0.05700000, 0.00152000
1868, 0.10766667, 0.05700000, 0.00152000
1869, 0.11400000, 0.05700000, 0.00152000
1870, 0.12033333, 0.05700000, 0.00152000
1871, 0.12666667, 0.05700000, 0.00152000
1872, 0.13300000, 0.05700000, 0.00152000
1873, 0.13933333, 0.05700000, 0.00152000
1874, 0.14566667, 0.05700000, 0.00152000
1875, 0.15200000, 0.05700000, 0.00152000
1876, 0.00000000, 0.06333333, 0.00152000
1877, 0.00633333, 0.06333333, 0.00152000
1878, 0.01266667, 0.06333333, 0.00152000
1879, 0.01900000, 0.06333333, 0.00152000
1880, 0.02533333, 0.06333333, 0.00152000
1881, 0.03166667, 0.06333333, 0.00152000
1882, 0.03800000, 0.06333333, 0.00152000
1883, 0.04433333, 0.06333333, 0.00152000
1884, 0.05066667, 0.06333333, 0.00152000
1885, 0.05700000, 0.06333333, 0.00152000
1886, 0.06333333, 0.06333333, 0.00152000
1887, 0.06966667, 0.06333333, 0.00152000
1888, 0.07600000, 0.06333333, 0.00152000
1889, 0.08233333, 0.06333333, 0.00152000
1890, 0.08866667, 0.06333333, 0.00152000
1891, 0.09500000, 0.06333333, 0.00152000
1892, 0.10133333, 0.06333333, 0.00152000
1893, 0.10766667, 0.06333333, 0.00152000
1894, 0.11400000, 0.06333333, 0.00152000
1895, 0.12033333, 0.06333333, 0.00152000
1896, 0.12666667, 0.06333333, 0.00152000
1897, 0.13300000, 0.06333333, 0.00152000
1898, 0.13933333, 0.06333333, 0.00152000
1899, 0.14566667, 0.06333333, 0.00152000
1900, 0.15200000, 0.06333333, 0.00152000
1901, 0.00000000, 0.06966667, 0.00152000
1902, 0.00633333, 0.06966667, 0.00152000
1903, 0.01266667, 0.06966667, 0.00152000
1904, 0.01900000, 0.06966667, 0.00152000
1905, 0.02533333, 0.06966667, 0.00152000
1906, 0.03166667, 0.06966667, 0.00152000
1907, 0.03800000, 0.06966667, 0.00152000
1908, 0.04433333, 0.06966667, 0.00152000
1909, 0.05066667, 0.06966667, 0.00152000
1910, 0.05700000, 0.06966667, 0.00152000
1911, 0.06333333, 0.06966667, 0.00152000
1912, 0.06966667, 0.06966667, 0.00152000
1913, 0.07600000, 0.06966667, 0.00152000
1914, 0.08233333, 0.06966667, 0.00152000
1915, 0.08866667, 0.06966667, 0.00152000
1916, 0.09500000, 0.06966667, 0.00152000
1917, 0.10133333, 0.06966667, 0.00152000
1918, 0.10766667, 0.06966667, 0.00152000
1919, 0.11400000, 0.06966667, 0.00152000
1920, 0.12033333, 0.06966667, 0.00152000
1921, 0.12666667, 0.06966667, 0.00152000
1922, 0.13300000, 0.06966667, 0.00152000
1923, 0.13933333, 0.06966667, 0.00152000
1924, 0.14566667, 0.06966667, 0.00152000
1925, 0.15200000, 0.06966667, 0.00152000
1926, 0.00000000, 0.07600000, 0.00152000
1927, 0.00633333, 0.07600000, 0.00152000
1928, 0.01266667, 0.07600000, 0.00152000
1929, 0.01900000, 0.07600000, 0.00152000
1930, 0.02533333, 0.07600000, 0.00152000
1931, 0.03166667, 0.07600000, 0.00152000
1932, 0.03800000, 0.07600000, 0.00152000
1933, 0.04433333, 0.07600000, 0.00152000
1934, 0.05066667, 0.07600000, 0.00152000
1935, 0.05700000, 0.07600000, 0.00152000
1936, 0.06333333, 0.07600000, 0.00152000
1937, 0.06966667, 0.07600000, 0.00152000
1938, 0.07600000, 0.07600000, 0.00152000
1939, 0.08233333, 0.07600000, 0.00152000
1940, 0.08866667, 0.07600000, 0.00152000
1941, 0.09500000, 0.07600000, 0.00152000
1942, 0.10133333, 0.07600000, 0.00152000
1943, 0.10766667, 0.07600000, 0.00152000
1944, 0.11400000, 0.07600000, 0.00152000
1945, 0.12033333, 0.07600000, 0.00152000
1946, 0.12666667, 0.07600000, 0.00152000
1947, 0.13300000, 0.07600000, 0.00152000
1948, 0.13933333, 0.07600000, 0.00152000
1949, 0.14566667, 0.07600000, 0.00152000
1950, 0.15200000, 0.07600000, 0.00152000
1951, 0.00000000, 0.00000000, 0.00165000
1952, 0.00633333, 0.00000000, 0.00165000
1953, 0.01266667, 0.00000000, 0.00165000
1954, 0.01900000, 0.00000000, 0.00165000
1955, 0.02533333, 0.00000000, 0.00165000
1956, 0.03166667, 0.00000000, 0.00165000
1957, 0.03800000, 0.00000000, 0.00165000
1958, 0.04433333, 0.00000000, 0.00165000
1959, 0.05066667, 0.00000000, 0.00165000
1960, 0.05700000, 0.00000000, 0.00165000
1961, 0.06333333, 0.00000000, 0.00165000
1962, 0.06966667, 0.00000000, 0.00165000
1963, 0.07600000, 0.00000000, 0.00165000
1964, 0.08233333, 0.00000000, 0.00165000
1965, 0.08866667, 0.00000000, 0.00165000
1966, 0.09500000, 0.00000000, 0.00165000
1967, 0.10133333, 0.00000000, 0.00165000
1968, 0.10766667, 0.00000000, 0.00165000
1969, 0.11400000, 0.00000000, 0.00165000
1970, 0.12033333, 0.00000000, 0.00165000
1971, 0.12666667, 0.00000000, 0.00165000
1972, 0.13300000, 0.00000000, 0.00165000
1973, 0.13933333, 0.00000000, 0.00165000
1974, 0.14566667, 0.00000000, 0.00165000
1975, 0.15200000, 0.00000000, 0.00165000
1976, 0.00000000, 0.00633333, 0.00165000
1977, 0.00633333, 0.00633333, 0.00165000
1978, 0.01266667, 0.00633333, 0.00165000
1979, 0.01900000, 0.00633333, 0.00165000
1980, 0.02533333, 0.00633333, 0.00165000
1981, 0.03166667, 0.00633333, 0.00165000
1982, 0.03800000, 0.00633333, 0.00165000
1983, 0.04433333, 0.00633333, 0.00165000
1984, 0.05066667, 0.00633333, 0.00165000
1985, 0.05700000, 0.00633333, 0.00165000
1986, 0.06333333, 0.00633333, 0.00165000
1987, 0.06966667, 0.00633333, 0.00165000
1988, 0.07600000, 0.00633333, 0.00165000
1989, 0.08233333, 0.00633333, 0.00165000
1990, 0.08866667, 0.00633333, 0.00165000
1991, 0.09500000, 0.00633333, 0.00165000
1992, 0.10133333, 0.00633333, 0.00165000
1993, 0.10766667, 0.00633333, 0.00165000
1994, 0.11400000, 0.00633333, 0.00165000
1995, 0.12033333, 0.00633333, 0.00165000
1996, 0.12666667, 0.00633333, 0.00165000
1997, 0.13300000, 0.00633333, 0.00165000
1998, 0.13933333, 0.00633333, 0.00165000
1999, 0.14566667, 0.00633333, 0.00165000
2000, 0.15200000, 0.00633333, 0.00165000
2001, 0.00000000, 0.01266667, 0.00165000
2002, 0.00633333, 0.01266667, 0.00165000
2003, 0.01266667, 0.01266667, 0.00165000
2004, 0.01900000, 0.01266667, 0.00165000
2005, 0.02533333, 0.01266667, 0.00165000
2006, 0.03166667, 0.01266667, 0.00165000
2007, 0.03800000, 0.01266667, 0.00165000
2008, 0.04433333, 0.01266667, 0.00165000
2009, 0.05066667, 0.01266667, 0.00165000
2010, 0.05700000, 0.01266667, 0.00165000
2011, 0.06333333, 0.01266667, 0.00165000
2012, 0.06966667, 0.01266667, 0.00165000
2013, 0.07600000, 0.01266667, 0.00165000
2014, 0.08233333, 0.01266667, 0.00165000
2015, 0.08866667, 0.01266667, 0.00165000
2016, 0.09500000, 0.01266667, 0.00165000
2017, 0.10133333, 0.01266667, 0.00165000
2018, 0.10766667, 0.01266667, 0.00165000
2019, 0.11400000, 0.01266667, 0.00165000
2020, 0.12033333, 0.01266667, 0.00165000
2021, 0.12666667, 0.01266667, 0.00165000
2022, 0.13300000, 0.01266667, 0.00165000
2023, 0.13933333, 0.01266667, 0.00165000
2024, 0.14566667, 0.01266667, 0.00165000
2025, 0.15200000, 0.01266667, 0.00165000
2026, 0.00000000, 0.01900000, 0.00165000
2027, 0.00633333, 0.01900000, 0.00165000
2028, 0.01266667, 0.01900000, 0.00165000
2029, 0.01900000, 0.01900000, 0.00165000
2030, 0.02533333, 0.01900000, 0.00165000
2031, 0.03166667, 0.01900000, 0.00165000
2032, 0.03800000, 0.01900000, 0.00165000
2033, 0.04433333, 0.01900000, 0.00165000
2034, 0.05066667, 0.01900000, 0.00165000
2035, 0.05700000, 0.01900000, 0.00165000
2036, 0.06333333, 0.01900000, 0.00165000
2037, 0.06966667, 0.01900000, 0.00165000
2038, 0.07600000, 0.01900000, 0.00165000
2039, 0.08233333, 0.01900000, 0.00165000
2040, 0.08866667, 0.01900000, 0.00165000
2041, 0.09500000, 0.01900000, 0.00165000
2042, 0.10133333, 0.01900000, 0.00165000
2043, 0.10766667, 0.01900000, 0.00165000
2044, 0.11400000, 0.01900000, 0.00165000
2045, 0.12033333, 0.01900000, 0.00165000
2046, 0.12666667, 0.01900000, 0.00165000
2047, 0.13300000, 0.01900000, 0.00165000
2048, 0.13933333, 0.01900000, 0.00165000
2049, 0.14566667, 0.01900000, 0.00165000
2050, 0.15200000, 0.01900000, 0.00165000
2051, 0.00000000, 0.02533333, 0.00165000
2052, 0.00633333, 0.02533333, 0.00165000
2053, 0.01266667, 0.02533333, 0.00165000
2054, 0.01900000, 0.02533333, 0.00165000
2055, 0.02533333, 0.02533333, 0.00165000
2056, 0.03166667, 0.02533333, 0.00165000
2057, 0.03800000, 0.02533333, 0.00165000
2058, 0.04433333, 0.02533333, 0.00165000
2059, 0.05066667, 0.02533333, 0.00165000
2060, 0.05700000, 0.02533333, 0.00165000
2061, 0.06333333, 0.02533333, 0.00165000
2062, 0.06966667, 0.02533333, 0.00165000
2063, 0.07600000, 0.02533333, 0.00165000
2064, 0.08233333, 0.02533333, 0.00165000
2065, 0.08866667, 0.02533333, 0.00165000
2066, 0.09500000, 0.02533333, 0.00165000
2067, 0.10133333, 0.02533333, 0.00165000
2068, 0.10766667, 0.02533333, 0.00165000
2069, 0.11400000, 0.02533333, 0.00165000
2070, 0.12033333, 0.02533333, 0.00165000
2071, 0.12666667, 0.02533333, 0.00165000
2072, 0.13300000, 0.02533333, 0.00165000
2073, 0.13933333, 0.02533333, 0.00165000
2074, 0.14566667, 0.02533333, 0.00165000
2075, 0.15200000, 0.02533333, 0.00165000
2076, 0.00000000, 0.03166667, 0.00165000
2077, 0.00633333, 0.03166667, 0.00165000
2078, 0.01266667, 0.03166667, 0.00165000
2079, 0.01900000, 0.03166667, 0.00165000
2080, 0.02533333, 0.03166667, 0.00165000
2081, 0.03166667, 0.03166667, 0.00165000
2082, 0.03800000, 0.03166667, 0.00165000
2083, 0.04433333, 0.03166667, 0.00165000
2084, 0.05066667, 0.03166667, 0.00165000
2085, 0.05700000, 0.03166667, 0.00165000
2086, 0.06333333, 0.03166667, 0.00165000
2087, 0.06966667, 0.03166667, 0.00165000
2088, 0.07600000, 0.03166667, 0.00165000
2089, 0.08233333, 0.03166667, 0.00165000
2090, 0.08866667, 0.03166667, 0.00165000
2091, 0.09500000, 0.03166667, 0.00165000
2092, 0.10133333, 0.03166667, 0.00165000
2093, 0.10766667, 0.03166667, 0.00165000
2094, 0.11400000, 0.03166667, 0.00165000
2095, 0.12033333, 0.03166667, 0.00165000
2096, 0.12666667, 0.03166667, 0.00165000
2097, 0.13300000, 0.03166667, 0.00165000
2098, 0.13933333, 0.03166667, 0.00165000
2099, 0.14566667, 0.03166667, 0.00165000
2100, 0.15200000, 0.03166667, 0.00165000
2101, 0.00000000, 0.03800000, 0.00165000
2102, 0.00633333, 0.03800000, 0.00165000
2103, 0.01266667, 0.03800000, 0.00165000
2104, 0.01900000, 0.03800000, 0.00165000
2105, 0.02533333, 0.03800000, 0.00165000
2106, 0.03166667, 0.03800000, 0.00165000
2107, 0.03800000, 0.03800000, 0.00165000
2108, 0.04433333, 0.03800000, 0.00165000
2109, 0.05066667, 0.03800000, 0.00165000
2110, 0.05700000, 0.03800000, 0.00165000
2111, 0.06333333, 0.03800000, 0.00165000
2112, 0.06966667, 0.03800000, 0.00165000
2113, 0.07600000, 0.03800000, 0.00165000
2114, 0.08233333, 0.03800000, 0.00165000
2115, 0.08866667, 0.03800000, 0.00165000
2116, 0.09500000, 0.03800000, 0.00165000
2117, 0.10133333, 0.03800000, 0.00165000
2118, 0.10766667, 0.03800000, 0.00165000
2119, 0.11400000, 0.03800000, 0.00165000
2120, 0.12033333, 0.03800000, 0.00165000
2121, 0.12666667, 0.03800000, 0.00165000
2122, 0.13300000, 0.03800000, 0.00165000
2123, 0.13933333, 0.03800000, 0.00165000
2124, 0.14566667, 0.03800000, 0.00165000
2125, 0.15200000, 0.03800000, 0.00165000
2126, 0.00000000, 0.04433333, 0.00165000
2127, 0.00633333, 0.04433333, 0.00165000
2128, 0.01266667, 0.04433333, 0.00165000
2129, 0.01900000, 0.04433333, 0.00165000
2130, 0.02533333, 0.04433333, 0.00165000
2131, 0.03166667, 0.04433333, 0.00165000
2132, 0.03800000, 0.04433333, 0.00165000
2133, 0.04433333, 0.04433333, 0.00165000
2134, 0.05066667, 0.04433333, 0.00165000
2135, 0.05700000, 0.04433333, 0.00165000
2136, 0.06333333, 0.04433333, 0.00165000
2137, 0.06966667, 0.04433333, 0.00165000
2138, 0.07600000, 0.04433333, 0.00165000
2139, 0.08233333, 0.04433333, 0.00165000
2140, 0.08866667, 0.04433333, 0.00165000
2141, 0.09500000, 0.04433333, 0.00165000
2142, 0.10133333, 0.04433333, 0.00165000
2143, 0.10766667, 0.04433333, 0.00165000
2144, 0.11400000, 0.04433333, 0.00165000
2145, 0.12033333, 0.04433333, 0.00165000
2146, 0.12666667, 0.04433333, 0.00165000
2147, 0.13300000, 0.04433333, 0.00165000
2148, 0.13933333, 0.04433333, 0.00165000
2149, 0.14566667, 0.04433333, 0.00165000
2150, 0.15200000, 0.04433333, 0.00165000
2151, 0.00000000, 0.05066667, 0.00165000
2152, 0.00633333, 0.05066667, 0.00165000
2153, 0.01266667, 0.05066667, 0.00165000
2154, 0.01900000, 0.05066667, 0.00165000
2155, 0.02533333, 0.05066667, 0.00165000
2156, 0.03166667, 0.05066667, 0.00165000
2157, 0.03800000, 0.05066667, 0.00165000
2158, 0.04433333, 0.05066667, 0.00165000
2159, 0.05066667, 0.05066667, 0.00165000
2160, 0.05700000, 0.05066667, 0.00165000
2161, 0.06333333, 0.05066667, 0.00165000
2162, 0.06966667, 0.05066667, 0.00165000
2163, 0.07600000, 0.05066667, 0.00165000
2164, 0.08233333, 0.05066667, 0.00165000
2165, 0.08866667, 0.05066667, 0.00165000
2166, 0.09500000, 0.05066667, 0.00165000
2167, 0.10133333, 0.05066667, 0.00165000
2168, 0.10766667, 0.05066667, 0.00165000
2169, 0.11400000, 0.05066667, 0.00165000
2170, 0.12033333, 0.05066667, 0.00165000
2171, 0.12666667, 0.05066667, 0.00165000
2172, 0.13300000, 0.05066667, 0.00165000
2173, 0.13933333, 0.05066667, 0.00165000
2174, 0.14566667, 0.05066667, 0.00165000
2175, 0.15200000, 0.05066667, 0.00165000
2176, 0.00000000, 0.05700000, 0.00165000
2177, 0.00633333, 0.05700000, 0.00165000
2178, 0.01266667, 0.05700000, 0.00165000
2179, 0.01900000, 0.05700000, 0.00165000
2180, 0.02533333, 0.05700000, 0.00165000
2181, 0.03166667, 0.05700000, 0.00165000
2182, 0.03800000, 0.05700000, 0.00165000
2183, 0.04433333, 0.05700000, 0.00165000
2184, 0.05066667, 0.05700000, 0.00165000
2185, 0.05700000, 0.05700000, 0.00165000
2186, 0.06333333, 0.05700000, 0.00165000
2187, 0.06966667, 0.05700000, 0.00165000
2188, 0.07600000, 0.05700000, 0.00165000
2189, 0.08233333, 0.05700000, 0.00165000
2190, 0.08866667, 0.05700000, 0.00165000
2191, 0.09500000, 0.05700000, 0.00165000
2192, 0.10133333, 0.05700000, 0.00165000
2193, 0.10766667, 0.05700000, 0.00165000
2194, 0.11400000, 0.05700000, 0.00165000
2195, 0.12033333, 0.05700000, 0.00165000
2196, 0.12666667, 0.05700000, 0.00165000
2197, 0.13300000, 0.05700000, 0.00165000
2198, 0.13933333, 0.05700000, 0.00165000
2199, 0.14566667, 0.05700000, 0.00165000
2200, 0.15200000, 0.05700000, 0.00165000
2201, 0.00000000, 0.06333333, 0.00165000
2202, 0.00633333, 0.06333333, 0.00165000
2203, 0.01266667, 0.06333333, 0.00165000
2204, 0.01900000, 0.06333333, 0.00165000
2205, 0.02533333, 0.06333333, 0.00165000
2206, 0.03166667, 0.06333333, 0.00165000
2207, 0.03800000, 0.06333333, 0.00165000
2208, 0.04433333, 0.06333333, 0.00165000
2209, 0.05066667, 0.06333333, 0.00165000
2210, 0.05700000, 0.06333333, 0.00165000
2211, 0.06333333, 0.06333333, 0.00165000
2212, 0.06966667, 0.06333333, 0.00165000
2213, 0.07600000, 0.06333333, 0.00165000
2214, 0.08233333, 0.06333333, 0.00165000
2215, 0.08866667, 0.06333333, 0.00165000
2216, 0.09500000, 0.06333333, 0.00165000
2217, 0.10133333, 0.06333333, 0.00165000
2218, 0.10766667, 0.06333333, 0.00165000
2219, 0.11400000, 0.06333333, 0.00165000
2220, 0.12033333, 0.06333333, 0.00165000
2221, 0.12666667, 0.06333333, 0.00165000
2222, 0.13300000, 0.06333333, 0.00165000
2223, 0.13933333, 0.06333333, 0.00165000
2224, 0.14566667, 0.06333333, 0.00165000
2225, 0.15200000, 0.06333333, 0.00165000
2226, 0.00000000, 0.06966667, 0.00165000
2227, 0.00633333, 0.06966667, 0.00165000
2228, 0.01266667, 0.06966667, 0.00165000
2229, 0.01900000, 0.06966667, 0.00165000
2230, 0.02533333, 0.06966667, 0.00165000
2231, 0.03166667, 0.06966667, 0.00165000
2232, 0.03800000, 0.06966667, 0.00165000
2233, 0.04433333, 0.06966667, 0.00165000
2234, 0.05066667, 0.06966667, 0.00165000
2235, 0.05700000, 0.06966667, 0.00165000
2236, 0.06333333, 0.06966667, 0.00165000
2237, 0.06966667, 0.06966667, 0.00165000
2238, 0.07600000, 0.06966667, 0.00165000
2239, 0.08233333, 0.06966667, 0.00165000
2240, 0.08866667, 0.06966667, 0.00165000
2241, 0.09500000, 0.06966667, 0.00165000
2242, 0.10133333, 0.06966667, 0.00165000
2243, 0.10766667, 0.06966667, 0.00165000
2244, 0.11400000, 0.06966667, 0.00165000
2245, 0.12033333, 0.06966667, 0.00165000
2246, 0.12666667, 0.06966667, 0.00165000
2247, 0.13300000, 0.06966667, 0.00165000
2248, 0.13933333, 0.06966667, 0.00165000
2249, 0.14566667, 0.06966667, 0.00165000
2250, 0.15200000, 0.06966667, 0.00165000
2251, 0.00000000, 0.07600000, 0.00165000
2252, 0.00633333, 0.07600000, 0.00165000
2253, 0.01266667, 0.07600000, 0.00165000
2254, 0.01900000, 0.07600000, 0.00165000
2255, 0.02533333, 0.07600000, 0.00165000
2256, 0.03166667, 0.07600000, 0.00165000
2257, 0.03800000, 0.07600000, 0.00165000
2258, 0.04433333, 0.07600000, 0.00165000
2259, 0.05066667, 0.07600000, 0.00165000
2260, 0.05700000, 0.07600000, 0.00165000
2261, 0.06333333, 0.07600000, 0.00165000
2262, 0.06966667, 0.07600000, 0.00165000
2263, 0.07600000, 0.07600000, 0.00165000
2264, 0.08233333, 0.07600000, 0.00165000
2265, 0.08866667, 0.07600000, 0.00165000
2266, 0.09500000, 0.07600000, 0.00165000
2267, 0.10133333, 0.07600000, 0.00165000
2268, 0.10766667, 0.07600000, 0.00165000
2269, 0.11400000, 0.07600000, 0.00165000
2270, 0.12033333, 0.07600000, 0.00165000
2271, 0.12666667, 0.07600000, 0.00165000
2272, 0.13300000, 0.07600000, 0.00165000
2273, 0.13933333, 0.07600000, 0.00165000
2274, 0.14566667, 0.07600000, 0.00165000
2275, 0.15200000, 0.07600000, 0.00165000
2276, 0.00000000, 0.00000000, 0.00178000
2277, 0.00633333, 0.00000000, 0.00178000
2278, 0.01266667, 0.00000000, 0.00178000
2279, 0.01900000, 0.00000000, 0.00178000
2280, 0.02533333, 0.00000000, 0.00178000
2281, 0.03166667, 0.00000000, 0.00178000
2282, 0.03800000, 0.00000000, 0.00178000
2283, 0.04433333, 0.00000000, 0.00178000
2284, 0.05066667, 0.00000000, 0.00178000
2285, 0.05700000, 0.00000000, 0.00178000
2286, 0.06333333, 0.00000000, 0.00178000
2287, 0.06966667, 0.00000000, 0.00178000
2288, 0.07600000, 0.00000000, 0.00178000
2289, 0.08233333, 0.00000000, 0.00178000
2290, 0.08866667, 0.00000000, 0.00178000
2291, 0.09500000, 0.00000000, 0.00178000
2292, 0.10133333, 0.00000000, 0.00178000
2293, 0.10766667, 0.00000000, 0.00178000
2294, 0.11400000, 0.00000000, 0.00178000
2295, 0.12033333, 0.00000000, 0.00178000
2296, 0.12666667, 0.00000000, 0.00178000
2297, 0.13300000, 0.00000000, 0.00178000
2298, 0.13933333, 0.00000000, 0.00178000
2299, 0.14566667, 0.00000000, 0.00178000
2300, 0.15200000, 0.00000000, 0.00178000
2301, 0.00000000, 0.00633333, 0.00178000
2302, 0.00633333, 0.00633333, 0.00178000
2303, 0.01266667, 0.00633333, 0.00178000
2304, 0.01900000, 0.00633333, 0.00178000
2305, 0.02533333, 0.00633333, 0.00178000
2306, 0.03166667, 0.00633333, 0.00178000
2307, 0.03800000, 0.00633333, 0.00178000
2308, 0.04433333, 0.00633333, 0.00178000
2309, 0.05066667, 0.00633333, 0.00178000
2310, 0.05700000, 0.00633333, 0.00178000
2311, 0.06333333, 0.00633333, 0.00178000
2312, 0.06966667, 0.00633333, 0.00178000
2313, 0.07600000, 0.00633333, 0.00178000
2314, 0.08233333, 0.00633333, 0.00178000
2315, 0.08866667, 0.00633333, 0.00178000
2316, 0.09500000, 0.00633333, 0.00178000
2317, 0.10133333, 0.00633333, 0.00178000
2318, 0.10766667, 0.00633333, 0.00178000
2319, 0.11400000, 0.00633333, 0.00178000
2320, 0.12033333, 0.00633333, 0.00178000
2321, 0.12666667, 0.00633333, 0.00178000
2322, 0.13300000, 0.00633333, 0.00178000
2323, 0.13933333, 0.00633333, 0.00178000
2324, 0.14566667, 0.00633333, 0.00178000
2325, 0.15200000, 0.00633333, 0.00178000
2326, 0.00000000, 0.01266667, 0.00178000
2327, 0.00633333, 0.01266667, 0.00178000
2328, 0.01266667, 0.01266667, 0.00178000
2329, 0.01900000, 0.01266667, 0.00178000
2330, 0.02533333, 0.01266667, 0.00178000
2331, 0.03166667, 0.01266667, 0.00178000
2332, 0.03800000, 0.01266667, 0.00178000
2333, 0.04433333, 0.01266667, 0.00178000
2334, 0.05066667, 0.01266667, 0.00178000
2335, 0.05700000, 0.01266667, 0.00178000
2336, 0.06333333, 0.01266667, 0.00178000
2337, 0.06966667, 0.01266667, 0.00178000
2338, 0.07600000, 0.01266667, 0.00178000
2339, 0.08233333, 0.01266667, 0.00178000
2340, 0.08866667, 0.01266667, 0.00178000
2341, 0.09500000, 0.01266667, 0.00178000
2342, 0.10133333, 0.01266667, 0.00178000
2343, 0.10766667, 0.01266667, 0.00178000
2344, 0.11400000, 0.01266667, 0.00178000
2345, 0.12033333, 0.01266667, 0.00178000
2346, 0.12666667, 0.01266667, 0.00178000
2347, 0.13300000, 0.01266667, 0.00178000
2348, 0.13933333, 0.01266667, 0.00178000
2349, 0.14566667, 0.01266667, 0.00178000
2350, 0.15200000, 0.01266667, 0.00178000
2351, 0.00000000, 0.01900000, 0.00178000
2352, 0.00633333, 0.01900000, 0.00178000
2353, 0.01266667, 0.01900000, 0.00178000
2354, 0.01900000, 0.01900000, 0.00178000
2355, 0.02533333, 0.01900000, 0.00178000
2356, 0.03166667, 0.01900000, 0.00178000
2357, 0.03800000, 0.01900000, 0.00178000
2358, 0.04433333, 0.01900000, 0.00178000
2359, 0.05066667, 0.01900000, 0.00178000
2360, 0.05700000, 0.01900000, 0.00178000
2361, 0.06333333, 0.01900000, 0.00178000
2362, 0.06966667, 0.01900000, 0.00178000
2363, 0.07600000, 0.01900000, 0.00178000
2364, 0.08233333, 0.01900000, 0.00178000
2365, 0.08866667, 0.01900000, 0.00178000
2366, 0.09500000, 0.01900000, 0.00178000
2367, 0.10133333, 0.01900000, 0.00178000
2368, 0.10766667, 0.01900000, 0.00178000
2369, 0.11400000, 0.01900000, 0.00178000
2370, 0.12033333, 0.01900000, 0.00178000
2371, 0.12666667, 0.01900000, 0.00178000
2372, 0.13300000, 0.01900000, 0.00178000
2373, 0.13933333, 0.01900000, 0.00178000
2374, 0.14566667, 0.01900000, 0.00178000
2375, 0.15200000, 0.01900000, 0.00178000
2376, 0.00000000, 0.02533333, 0.00178000
2377, 0.00633333, 0.02533333, 0.00178000
2378, 0.01266667, 0.02533333, 0.00178000
2379, 0.01900000, 0.02533333, 0.00178000
2380, 0.02533333, 0.02533333, 0.00178000
2381, 0.03166667, 0.02533333, 0.00178000
2382, 0.03800000, 0.02533333, 0.00178000
2383, 0.04433333, 0.02533333, 0.00178000
2384, 0.05066667, 0.02533333, 0.00178000
2385, 0.05700000, 0.02533333, 0.00178000
2386, 0.06333333, 0.02533333, 0.00178000
2387, 0.06966667, 0.02533333, 0.00178000
2388, 0.07600000, 0.02533333, 0.00178000
2389, 0.08233333, 0.02533333, 0.00178000
2390, 0.08866667, 0.02533333, 0.00178000
2391, 0.09500000, 0.02533333, 0.00178000
2392, 0.10133333, 0.02533333, 0.00178000
2393, 0.10766667, 0.02533333, 0.00178000
2394, 0.11400000, 0.02533333, 0.00178000
2395, 0.12033333, 0.02533333, 0.00178000
2396, 0.12666667, 0.02533333, 0.00178000
2397, 0.13300000, 0.02533333, 0.00178000
2398, 0.13933333, 0.02533333, 0.00178000
2399, 0.14566667, 0.02533333, 0.00178000
2400, 0.15200000, 0.02533333, 0.00178000
2401, 0.00000000, 0.03166667, 0.00178000
2402, 0.00633333, 0.03166667, 0.00178000
2403, 0.01266667, 0.03166667, 0.00178000
2404, 0.01900000, 0.03166667, 0.00178000
2405, 0.02533333, 0.03166667, 0.00178000
2406, 0.03166667, 0.03166667, 0.00178000
2407, 0.03800000, 0.03166667, 0.00178000
2408, 0.04433333, 0.03166667, 0.00178000
2409, 0.05066667, 0.03166667, 0.00178000
2410, 0.05700000, 0.03166667, 0.00178000
2411, 0.06333333, 0.03166667, 0.00178000
2412, 0.06966667, 0.03166667, 0.00178000
2413, 0.07600000, 0.03166667, 0.00178000
2414, 0.08233333, 0.03166667, 0.00178000
2415, 0.08866667, 0.03166667, 0.00178000
2416, 0.09500000, 0.03166667, 0.00178000
2417, 0.10133333, 0.03166667, 0.00178000
2418, 0.10766667, 0.03166667, 0.00178000
2419, 0.11400000, 0.03166667, 0.00178000
2420, 0.12033333, 0.03166667, 0.00178000
2421, 0.12666667, 0.03166667, 0.00178000
2422, 0.13300000, 0.03166667, 0.00178000
2423, 0.13933333, 0.03166667, 0.00178000
2424, 0.14566667, 0.03166667, 0.00178000
2425, 0.15200000, 0.03166667, 0.00178000
2426, 0.00000000, 0.03800000, 0.00178000
2427, 0.00633333, 0.03800000, 0.00178000
2428, 0.01266667, 0.03800000, 0.00178000
2429, 0.01900000, 0.03800000, 0.00178000
2430, 0.02533333, 0.03800000, 0.00178000
2431, 0.03166667, 0.03800000, 0.00178000
2432, 0.03800000, 0.03800000, 0.00178000
2433, 0.04433333, 0.03800000, 0.00178000
2434, 0.05066667, 0.03800000, 0.00178000
2435, 0.05700000, 0.03800000, 0.00178000
2436, 0.06333333, 0.03800000, 0.00178000
2437, 0.06966667, 0.03800000, 0.00178000
2438, 0.07600000, 0.03800000, 0.00178000
2439, 0.08233333, 0.03800000, 0.00178000
2440, 0.08866667, 0.03800000, 0.00178000
2441, 0.09500000, 0.03800000, 0.00178000
2442, 0.10133333, 0.03800000, 0.00178000
2443, 0.10766667, 0.03800000, 0.00178000
2444, 0.11400000, 0.03800000, 0.00178000
2445, 0.12033333, 0.03800000, 0.00178000
2446, 0.12666667, 0.03800000, 0.00178000
2447, 0.13300000, 0.03800000, 0.00178000
2448, 0.13933333, 0.03800000, 0.00178000
2449, 0.14566667, 0.03800000, 0.00178000
2450, 0.15200000, 0.03800000, 0.00178000
2451, 0.00000000, 0.04433333, 0.00178000
2452, 0.00633333, 0.04433333, 0.00178000
2453, 0.01266667, 0.04433333, 0.00178000
2454, 0.01900000, 0.04433333, 0.00178000
2455, 0.02533333, 0.04433333, 0.00178000
2456, 0.03166667, 0.04433333, 0.00178000
2457, 0.03800000, 0.04433333, 0.00178000
2458, 0.04433333, 0.04433333, 0.00178000
2459, 0.05066667, 0.04433333, 0.00178000
2460, 0.05700000, 0.04433333, 0.00178000
2461, 0.06333333, 0.04433333, 0.00178000
2462, 0.06966667, 0.04433333, 0.00178000
2463, 0.07600000, 0.04433333, 0.00178000
2464, 0.08233333, 0.04433333, 0.00178000
2465, 0.08866667, 0.04433333, 0.00178000
2466, 0.09500000, 0.04433333, 0.00178000
2467, 0.10133333, 0.04433333, 0.00178000
2468, 0.10766667, 0.04433333, 0.00178000
2469, 0.11400000, 0.04433333, 0.00178000
2470, 0.12033333, 0.04433333, 0.00178000
2471, 0.12666667, 0.04433333, 0.00178000
2472, 0.13300000, 0.04433333, 0.00178000
2473, 0.13933333, 0.04433333, 0.00178000
2474, 0.14566667, 0.04433333, 0.00178000
2475, 0.15200000, 0.04433333, 0.00178000
2476, 0.00000000, 0.05066667, 0.00178000
2477, 0.00633333, 0.05066667, 0.00178000
2478, 0.01266667, 0.05066667, 0.00178000
2479, 0.01900000, 0.05066667, 0.00178000
2480, 0.02533333, 0.05066667, 0.00178000
2481, 0.03166667, 0.05066667, 0.00178000
2482, 0.03800000, 0.05066667, 0.00178000
2483, 0.04433333, 0.05066667, 0.00178000
2484, 0.05066667, 0.05066667, 0.00178000
2485, 0.05700000, 0.05066667, 0.00178000
2486, 0.06333333, 0.05066667, 0.00178000
2487, 0.06966667, 0.05066667, 0.00178000
2488, 0.07600000, 0.05066667, 0.00178000
2489, 0.08233333, 0.05066667, 0.00178000
2490, 0.08866667, 0.05066667, 0.00178000
2491, 0.09500000, 0.05066667, 0.00178000
2492, 0.10133333, 0.05066667, 0.00178000
2493, 0.10766667, 0.05066667, 0.00178000
2494, 0.11400000, 0.05066667, 0.00178000
2495, 0.12033333, 0.05066667, 0.00178000
2496, 0.12666667, 0.05066667, 0.00178000
2497, 0.13300000, 0.05066667, 0.00178000
2498, 0.13933333, 0.05066667, 0.00178000
2499, 0.14566667, 0.05066667, 0.00178000
2500, 0.15200000, 0.05066667, 0.00178000
2501, 0.00000000, 0.05700000, 0.00178000
2502, 0.00633333, 0.05700000, 0.00178000
2503, 0.01266667, 0.05700000, 0.00178000
2504, 0.01900000, 0.05700000, 0.00178000
2505, 0.02533333, 0.05700000, 0.00178000
2506, 0.03166667, 0.05700000, 0.00178000
2507, 0.03800000, 0.05700000, 0.00178000
2508, 0.04433333, 0.05700000, 0.00178000
2509, 0.05066667, 0.05700000, 0.00178000
2510, 0.05700000, 0.05700000, 0.00178000
2511, 0.06333333, 0.05700000, 0.00178000
2512, 0.06966667, 0.05700000, 0.00178000
2513, 0.07600000, 0.05700000, 0.00178000
2514, 0.08233333, 0.05700000, 0.00178000
2515, 0.08866667, 0.05700000, 0.00178000
2516, 0.09500000, 0.05700000, 0.00178000
2517, 0.10133333, 0.05700000, 0.00178000
2518, 0.10766667, 0.05700000, 0.00178000
2519, 0.11400000, 0.05700000, 0.00178000
2520, 0.12033333, 0.05700000, 0.00178000
2521, 0.12666667, 0.05700000, 0.00178000
2522, 0.13300000, 0.05700000, 0.00178000
2523, 0.13933333, 0.05700000, 0.00178000
2524, 0.14566667, 0.05700000, 0.00178000
2525, 0.15200000, 0.05700000, 0.00178000
2526, 0.00000000, 0.06333333, 0.00178000
2527, 0.00633333, 0.06333333, 0.00178000
2528, 0.01266667, 0.06333333, 0.00178000
2529, 0.01900000, 0.06333333, 0.00178000
2530, 0.02533333, 0.06333333, 0.00178000
2531, 0.03166667, 0.06333333, 0.00178000
2532, 0.03800000, 0.06333333, 0.00178000
2533, 0.04433333, 0.06333333, 0.00178000
2534, 0.05066667, 0.06333333, 0.00178000
2535, 0.05700000, 0.06333333, 0.00178000
2536, 0.06333333, 0.06333333, 0.00178000
2537, 0.06966667, 0.06333333, 0.00178000
2538, 0.07600000, 0.06333333, 0.00178000
2539, 0.08233333, 0.06333333, 0.00178000
2540, 0.08866667, 0.06333333, 0.00178000
2541, 0.09500000, 0.06333333, 0.00178000
2542, 0.10133333, 0.06333333, 0.00178000
2543, 0.10766667, 0.06333333, 0.00178000
2544, 0.11400000, 0.06333333, 0.00178000
2545, 0.12033333, 0.06333333, 0.00178000
2546, 0.12666667, 0.06333333, 0.00178000
2547, 0.13300000, 0.06333333, 0.00178000
2548, 0.13933333, 0.06333333, 0.00178000
2549, 0.14566667, 0.06333333, 0.00178000
2550, 0.15200000, 0.06333333, 0.00178000
2551, 0.00000000, 0.06966667, 0.00178000
2552, 0.00633333, 0.06966667, 0.00178000
2553, 0.01266667, 0.06966667, 0.00178000
2554, 0.01900000, 0.06966667, 0.00178000
2555, 0.02533333, 0.06966667, 0.00178000
2556, 0.03166667, 0.06966667, 0.00178000
2557, 0.03800000, 0.06966667, 0.00178000
2558, 0.04433333, 0.06966667, 0.00178000
2559, 0.05066667, 0.06966667, 0.00178000
2560, 0.05700000, 0.06966667, 0.00178000
2561, 0.06333333, 0.06966667, 0.00178000
2562, 0.06966667, 0.06966667, 0.00178000
2563, 0.07600000, 0.06966667, 0.00178000
2564, 0.08233333, 0.06966667, 0.00178000
2565, 0.08866667, 0.06966667, 0.00178000
2566, 0.09500000, 0.06966667, 0.00178000
2567, 0.10133333, 0.06966667, 0.00178000
2568, 0.10766667, 0.06966667, 0.00178000
2569, 0.11400000, 0.06966667, 0.00178000
2570, 0.12033333, 0.06966667, 0.00178000
2571, 0.12666667, 0.06966667, 0.00178000
2572, 0.13300000, 0.06966667, 0.00178000
2573, 0.13933333, 0.06966667, 0.00178000
2574, 0.14566667, 0.06966667, 0.00178000
2575, 0.15200000, 0.06966667, 0.00178000
2576, 0.00000000, 0.07600000, 0.00178000
2577, 0.00633333, 0.07600000, 0.00178000
2578, 0.01266667, 0.07600000, 0.00178000
2579, 0.01900000, 0.07600000, 0.00178000
2580, 0.02533333, 0.07600000, 0.00178000
2581, 0.03166667, 0.07600000, 0.00178000
2582, 0.03800000, 0.07600000, 0.00178000
2583, 0.04433333, 0.07600000, 0.00178000
2584, 0.05066667, 0.07600000, 0.00178000
2585, 0.05700000, 0.07600000, 0.00178000
2586, 0.06333333, 0.07600000, 0.00178000
2587, 0.06966667, 0.07600000, 0.00178000
2588, 0.07600000, 0.07600000, 0.00178000
2589, 0.08233333, 0.07600000, 0.00178000
2590, 0.08866667, 0.07600000, 0.00178000
2591, 0.09500000, 0.07600000, 0.00178000
2592, 0.10133333, 0.07600000, 0.00178000
2593, 0.10766667, 0.07600000, 0.00178000
2594, 0.11400000, 0.07600000, 0.00178000
2595, 0.12033333, 0.07600000, 0.00178000
2596, 0.12666667, 0.07600000, 0.00178000
2597, 0.13300000, 0.07600000, 0.00178000
2598, 0.13933333, 0.07600000, 0.00178000
2599, 0.14566667, 0.07600000, 0.00178000
2600, 0.15200000, 0.07600000, 0.00178000
2601, 0.00000000, 0.00000000, 0.00191000
2602, 0.00633333, 0.00000000, 0.00191000
2603, 0.01266667, 0.00000000, 0.00191000
2604, 0.01900000, 0.00000000, 0.00191000
2605, 0.02533333, 0.00000000, 0.00191000
2606, 0.03166667, 0.00000000, 0.00191000
2607, 0.03800000, 0.00000000, 0.00191000
2608, 0.04433333, 0.00000000, 0.00191000
2609, 0.05066667, 0.00000000, 0.00191000
2610, 0.05700000, 0.00000000, 0.00191000
2611, 0.06333333, 0.00000000, 0.00191000
2612, 0.06966667, 0.00000000, 0.00191000
2613, 0.07600000, 0.00000000, 0.00191000
2614, 0.08233333, 0.00000000, 0.00191000
2615, 0.08866667, 0.00000000, 0.00191000
2616, 0.09500000, 0.00000000, 0.00191000
2617, 0.10133333, 0.00000000, 0.00191000
2618, 0.10766667, 0.00000000, 0.00191000
2619, 0.11400000, 0.00000000, 0.00191000
2620, 0.12033333, 0.00000000, 0.00191000
2621, 0.12666667, 0.00000000, 0.00191000
2622, 0.13300000, 0.00000000, 0.00191000
2623, 0.13933333, 0.00000000, 0.00191000
2624, 0.14566667, 0.00000000, 0.00191000
2625, 0.15200000, 0.00000000, 0.00191000
2626, 0.00000000, 0.00633333, 0.00191000
2627, 0.00633333, 0.00633333, 0.00191000
2628, 0.01266667, 0.00633333, 0.00191000
2629, 0.01900000, 0.00633333, 0.00191000
2630, 0.02533333, 0.00633333, 0.00191000
2631, 0.03166667, 0.00633333, 0.00191000
2632, 0.03800000, 0.00633333, 0.00191000
2633, 0.04433333, 0.00633333, 0.00191000
2634, 0.05066667, 0.00633333, 0.00191000
2635, 0.05700000, 0.00633333, 0.00191000
2636, 0.06333333, 0.00633333, 0.00191000
2637, 0.06966667, 0.00633333, 0.00191000
2638, 0.07600000, 0.00633333, 0.00191000
2639, 0.08233333, 0.00633333, 0.00191000
2640, 0.08866667, 0.00633333, 0.00191000
2641, 0.09500000, 0.00633333, 0.00191000
2642, 0.10133333, 0.00633333, 0.00191000
2643, 0.10766667, 0.00633333, 0.00191000
2644, 0.11400000, 0.00633333, 0.00191000
2645, 0.12033333, 0.00633333, 0.00191000
2646, 0.12666667, 0.00633333, 0.00191000
2647, 0.13300000, 0.00633333, 0.00191000
2648, 0.13933333, 0.00633333, 0.00191000
2649, 0.14566667, 0.00633333, 0.00191000
2650, 0.15200000, 0.00633333, 0.00191000
2651, 0.00000000, 0.01266667, 0.00191000
2652, 0.00633333, 0.01266667, 0.00191000
2653, 0.01266667, 0.01266667, 0.00191000
2654, 0.01900000, 0.01266667, 0.00191000
2655, 0.02533333, 0.01266667, 0.00191000
2656, 0.03166667, 0.01266667, 0.00191000
2657, 0.03800000, 0.01266667, 0.00191000
2658, 0.04433333, 0.01266667, 0.00191000
2659, 0.05066667, 0.01266667, 0.00191000
2660, 0.05700000, 0.01266667, 0.00191000
2661, 0.06333333, 0.01266667, 0.00191000
2662, 0.06966667, 0.01266667, 0.00191000
2663, 0.07600000, 0.01266667, 0.00191000
2664, 0.08233333, 0.01266667, 0.00191000
2665, 0.08866667, 0.01266667, 0.00191000
2666, 0.09500000, 0.01266667, 0.00191000
2667, 0.10133333, 0.01266667, 0.00191000
2668, 0.10766667, 0.01266667, 0.00191000
2669, 0.11400000, 0.01266667, 0.00191000
2670, 0.12033333, 0.01266667, 0.00191000
2671, 0.12666667, 0.01266667, 0.00191000
2672, 0.13300000, 0.01266667, 0.00191000
2673, 0.13933333, 0.01266667, 0.00191000
2674, 0.14566667, 0.01266667, 0.00191000
2675, 0.15200000, 0.01266667, 0.00191000
2676, 0.00000000, 0.01900000, 0.00191000
2677, 0.00633333, 0.01900000, 0.00191000
2678, 0.01266667, 0.01900000, 0.00191000
2679, 0.01900000, 0.01900000, 0.00191000
2680, 0.02533333, 0.01900000, 0.00191000
2681, 0.03166667, 0.01900000, 0.00191000
2682, 0.03800000, 0.01900000, 0.00191000
2683, 0.04433333, 0.01900000, 0.00191000
2684, 0.05066667, 0.01900000, 0.00191000
2685, 0.05700000, 0.01900000, 0.00191000
2686, 0.06333333, 0.01900000, 0.00191000
2687, 0.06966667, 0.01900000, 0.00191000
2688, 0.07600000, 0.01900000, 0.00191000
2689, 0.08233333, 0.01900000, 0.00191000
2690, 0.08866667, 0.01900000, 0.00191000
2691, 0.09500000, 0.01900000, 0.00191000
2692, 0.10133333, 0.01900000, 0.00191000
2693, 0.10766667, 0.01900000, 0.00191000
2694, 0.11400000, 0.01900000, 0.00191000
2695, 0.12033333, 0.01900000, 0.00191000
2696, 0.12666667, 0.01900000, 0.00191000
2697, 0.13300000, 0.01900000, 0.00191000
2698, 0.13933333, 0.01900000, 0.00191000
2699, 0.14566667, 0.01900000, 0.00191000
2700, 0.15200000, 0.01900000, 0.00191000
2701, 0.00000000, 0.02533333, 0.00191000
2702, 0.00633333, 0.02533333, 0.00191000
2703, 0.01266667, 0.02533333, 0.00191000
2704, 0.01900000, 0.02533333, 0.00191000
2705, 0.02533333, 0.02533333, 0.00191000
2706, 0.03166667, 0.02533333, 0.00191000
2707, 0.03800000, 0.02533333, 0.00191000
2708, 0.04433333, 0.02533333, 0.00191000
2709, 0.05066667, 0.02533333, 0.00191000
2710, 0.05700000, 0.02533333, 0.00191000
2711, 0.06333333, 0.02533333, 0.00191000
2712, 0.06966667, 0.02533333, 0.00191000
2713, 0.07600000, 0.02533333, 0.00191000
2714, 0.08233333, 0.02533333, 0.00191000
2715, 0.08866667, 0.02533333, 0.00191000
2716, 0.09500000, 0.02533333, 0.00191000
2717, 0.10133333, 0.02533333, 0.00191000
2718, 0.10766667, 0.02533333, 0.00191000
2719, 0.11400000, 0.02533333, 0.00191000
2720, 0.12033333, 0.02533333, 0.00191000
2721, 0.12666667, 0.02533333, 0.00191000
2722, 0.13300000, 0.02533333, 0.00191000
2723, 0.13933333, 0.02533333, 0.00191000
2724, 0.14566667, 0.02533333, 0.00191000
2725, 0.15200000, 0.02533333, 0.00191000
2726, 0.00000000, 0.03166667, 0.00191000
2727, 0.00633333, 0.03166667, 0.00191000
2728, 0.01266667, 0.03166667, 0.00191000
2729, 0.01900000, 0.03166667, 0.00191000
2730, 0.02533333, 0.03166667, 0.00191000
2731, 0.03166667, 0.03166667, 0.00191000
2732, 0.03800000, 0.03166667, 0.00191000
2733, 0.04433333, 0.03166667, 0.00191000
2734, 0.05066667, 0.03166667, 0.00191000
2735, 0.05700000, 0.03166667, 0.00191000
2736, 0.06333333, 0.03166667, 0.00191000
2737, 0.06966667, 0.03166667, 0.00191000
2738, 0.07600000, 0.03166667, 0.00191000
2739, 0.08233333, 0.03166667, 0.00191000
2740, 0.08866667, 0.03166667, 0.00191000
2741, 0.09500000, 0.03166667, 0.00191000
2742, 0.10133333, 0.03166667, 0.00191000
2743, 0.10766667, 0.03166667, 0.00191000
2744, 0.11400000, 0.03166667, 0.00191000
2745, 0.12033333, 0.03166667, 0.00191000
2746, 0.12666667, 0.03166667, 0.00191000
2747, 0.13300000, 0.03166667, 0.00191000
2748, 0.13933333, 0.03166667, 0.00191000
2749, 0.14566667, 0.03166667, 0.00191000
2750, 0.15200000, 0.03166667, 0.00191000
2751, 0.00000000, 0.03800000, 0.00191000
2752, 0.00633333, 0.03800000, 0.00191000
2753, 0.01266667, 0.03800000, 0.00191000
2754, 0.01900000, 0.03800000, 0.00191000
2755, 0.02533333, 0.03800000, 0.00191000
2756, 0.03166667, 0.03800000, 0.00191000
2757, 0.03800000, 0.03800000, 0.00191000
2758, 0.04433333, 0.03800000, 0.00191000
2759, 0.05066667, 0.03800000, 0.00191000
2760, 0.05700000, 0.03800000, 0.00191000
2761, 0.06333333, 0.03800000, 0.00191000
2762, 0.06966667, 0.03800000, 0.00191000
2763, 0.07600000, 0.03800000, 0.00191000
2764, 0.08233333, 0.03800000, 0.00191000
2765, 0.08866667, 0.03800000, 0.00191000
2766, 0.09500000, 0.03800000, 0.00191000
2767, 0.10133333, 0.03800000, 0.00191000
2768, 0.10766667, 0.03800000, 0.00191000
2769, 0.11400000, 0.03800000, 0.00191000
2770, 0.12033333, 0.03800000, 0.00191000
2771, 0.12666667, 0.03800000, 0.00191000
2772, 0.13300000, 0.03800000, 0.00191000
2773, 0.13933333, 0.03800000, 0.00191000
2774, 0.14566667, 0.03800000, 0.00191000
2775, 0.15200000, 0.03800000, 0.00191000
2776, 0.00000000, 0.04433333, 0.00191000
2777, 0.00633333, 0.04433333, 0.00191000
2778, 0.01266667, 0.04433333, 0.00191000
2779, 0.01900000, 0.04433333, 0.00191000
2780, 0.02533333, 0.04433333, 0.00191000
2781, 0.03166667, 0.04433333, 0.00191000
2782, 0.03800000, 0.04433333, 0.00191000
2783, 0.04433333, 0.04433333, 0.00191000
2784, 0.05066667, 0.04433333, 0.00191000
2785, 0.05700000, 0.04433333, 0.00191000
2786, 0.06333333, 0.04433333, 0.00191000
2787, 0.06966667, 0.04433333, 0.00191000
2788, 0.07600000, 0.04433333, 0.00191000
2789, 0.08233333, 0.04433333, 0.00191000
2790, 0.08866667, 0.04433333, 0.00191000
2791, 0.09500000, 0.04433333, 0.00191000
2792, 0.10133333, 0.04433333, 0.00191000
2793, 0.10766667, 0.04433333, 0.00191000
2794, 0.11400000, 0.04433333, 0.00191000
2795, 0.12033333, 0.04433333, 0.00191000
2796, 0.12666667, 0.04433333, 0.00191000
2797, 0.13300000, 0.04433333, 0.00191000
2798, 0.13933333, 0.04433333, 0.00191000
2799, 0.14566667, 0.04433333, 0.00191000
2800, 0.15200000, 0.04433333, 0.00191000
2801, 0.00000000, 0.05066667, 0.00191000
2802, 0.00633333, 0.05066667, 0.00191000
2803, 0.01266667, 0.05066667, 0.00191000
2804, 0.01900000, 0.05066667, 0.00191000
2805, 0.02533333, 0.05066667, 0.00191000
2806, 0.03166667, 0.05066667, 0.00191000
2807, 0.03800000, 0.05066667, 0.00191000
2808, 0.04433333, 0.05066667, 0.00191000
2809, 0.05066667, 0.05066667, 0.00191000
2810, 0.05700000, 0.05066667, 0.00191000
2811, 0.06333333, 0.05066667, 0.00191000
2812, 0.06966667, 0.05066667, 0.00191000
2813, 0.07600000, 0.05066667, 0.00191000
2814, 0.08233333, 0.05066667, 0.00191000
2815, 0.08866667, 0.05066667, 0.00191000
2816, 0.09500000, 0.05066667, 0.00191000
2817, 0.10133333, 0.05066667, 0.00191000
2818, 0.10766667, 0.05066667, 0.00191000
2819, 0.11400000, 0.05066667, 0.00191000
2820, 0.12033333, 0.05066667, 0.00191000
2821, 0.12666667, 0.05066667, 0.00191000
2822, 0.13300000, 0.05066667, 0.00191000
2823, 0.13933333, 0.05066667, 0.00191000
2824, 0.14566667, 0.05066667, 0.00191000
2825, 0.15200000, 0.05066667, 0.00191000
2826, 0.00000000, 0.05700000, 0.00191000
2827, 0.00633333, 0.05700000, 0.00191000
2828, 0.01266667, 0.05700000, 0.00191000
2829, 0.01900000, 0.05700000, 0.00191000
2830, 0.02533333, 0.05700000, 0.00191000
2831, 0.03166667, 0.05700000, 0.00191000
2832, 0.03800000, 0.05700000, 0.00191000
2833, 0.04433333, 0.05700000, 0.00191000
2834, 0.05066667, 0.05700000, 0.00191000
2835, 0.05700000, 0.05700000, 0.00191000
2836, 0.06333333, 0.05700000, 0.00191000
2837, 0.06966667, 0.05700000, 0.00191000
2838, 0.07600000, 0.05700000, 0.00191000
2839, 0.08233333, 0.05700000, 0.00191000
2840, 0.08866667, 0.05700000, 0.00191000
2841, 0.09500000, 0.05700000, 0.00191000
2842, 0.10133333, 0.05700000, 0.00191000
2843, 0.10766667, 0.05700000, 0.00191000
2844, 0.11400000, 0.05700000, 0.00191000
2845, 0.12033333, 0.05700000, 0.00191000
2846, 0.12666667, 0.05700000, 0.00191000
2847, 0.13300000, 0.05700000, 0.00191000
2848, 0.13933333, 0.05700000, 0.00191000
2849, 0.14566667, 0.05700000, 0.00191000
2850, 0.15200000, 0.05700000, 0.00191000
2851, 0.00000000, 0.06333333, 0.00191000
2852, 0.00633333, 0.06333333, 0.00191000
2853, 0.01266667, 0.06333333, 0.00191000
2854, 0.01900000, 0.06333333, 0.00191000
2855, 0.02533333, 0.06333333, 0.00191000
2856, 0.03166667, 0.06333333, 0.00191000
2857, 0.03800000, 0.06333333, 0.00191000
2858, 0.04433333, 0.06333333, 0.00191000
2859, 0.05066667, 0.06333333, 0.00191000
2860, 0.05700000, 0.06333333, 0.00191000
2861, 0.06333333, 0.06333333, 0.00191000
2862, 0.06966667, 0.06333333, 0.00191000
2863, 0.07600000, 0.06333333, 0.00191000
2864, 0.08233333, 0.06333333, 0.00191000
2865, 0.08866667, 0.06333333, 0.00191000
2866, 0.09500000, 0.06333333, 0.00191000
2867, 0.10133333, 0.06333333, 0.00191000
2868, 0.10766667, 0.06333333, 0.00191000
2869, 0.11400000, 0.06333333, 0.00191000
2870, 0.12033333, 0.06333333, 0.00191000
2871, 0.12666667, 0.06333333, 0.00191000
2872, 0.13300000, 0.06333333, 0.00191000
2873, 0.13933333, 0.06333333, 0.00191000
2874, 0.14566667, 0.06333333, 0.00191000
2875, 0.15200000, 0.06333333, 0.00191000
2876, 0.00000000, 0.06966667, 0.00191000
2877, 0.00633333, 0.06966667, 0.00191000
2878, 0.01266667, 0.06966667, 0.00191000
2879, 0.01900000, 0.06966667, 0.00191000
2880, 0.02533333, 0.06966667, 0.00191000
2881, 0.03166667, 0.06966667, 0.00191000
2882, 0.03800000, 0.06966667, 0.00191000
2883, 0.04433333, 0.06966667, 0.00191000
2884, 0.05066667, 0.06966667, 0.00191000
2885, 0.05700000, 0.06966667, 0.00191000
2886, 0.06333333, 0.06966667, 0.00191000
2887, 0.06966667, 0.06966667, 0.00191000
2888, 0.07600000, 0.06966667, 0.00191000
2889, 0.08233333, 0.06966667, 0.00191000
2890, 0.08866667, 0.06966667, 0.00191000
2891, 0.09500000, 0.06966667, 0.00191000
2892, 0.10133333, 0.06966667, 0.00191000
2893, 0.10766667, 0.06966667, 0.00191000
2894, 0.11400000, 0.06966667, 0.00191000
2895, 0.12033333, 0.06966667, 0.00191000
2896, 0.12666667, 0.06966667, 0.00191000
2897, 0.13300000, 0.06966667, 0.00191000
2898, 0.13933333, 0.06966667, 0.00191000
2899, 0.14566667, 0.06966667, 0.00191000
2900, 0.15200000, 0.06966667, 0.00191000
2901, 0.00000000, 0.07600000, 0.00191000
2902, 0.00633333, 0.07600000, 0.00191000
2903, 0.01266667, 0.07600000, 0.00191000
2904, 0.01900000, 0.07600000, 0.00191000
2905, 0.02533333, 0.07600000, 0.00191000
2906, 0.03166667, 0.07600000, 0.00191000
2907, 0.03800000, 0.07600000, 0.00191000
2908, 0.04433333, 0.07600000, 0.00191000
2909, 0.05066667, 0.07600000, 0.00191000
2910, 0.05700000, 0.07600000, 0.00191000
2911, 0.06333333, 0.07600000, 0.00191000
2912, 0.06966667, 0.07600000, 0.00191000
2913, 0.07600000, 0.07600000, 0.00191000
2914, 0.08233333, 0.07600000, 0.00191000
2915, 0.08866667, 0.07600000, 0.00191000
2916, 0.09500000, 0.07600000, 0.00191000
2917, 0.10133333, 0.07600000, 0.00191000
2918, 0.10766667, 0.07600000, 0.00191000
2919, 0.11400000, 0.07600000, 0.00191000
2920, 0.12033333, 0.07600000, 0.00191000
2921, 0.12666667, 0.07600000, 0.00191000
2922, 0.13300000, 0.07600000, 0.00191000
2923, 0.13933333, 0.07600000, 0.00191000
2924, 0.14566667, 0.07600000, 0.00191000
2925, 0.15200000, 0.07600000, 0.00191000
2926, 0.00000000, 0.00000000, 0.00204000
2927, 0.00633333, 0.00000000, 0.00204000
2928, 0.01266667, 0.00000000, 0.00204000
2929, 0.01900000, 0.00000000, 0.00204000
2930, 0.02533333, 0.00000000, 0.00204000
2931, 0.03166667, 0.00000000, 0.00204000
2932, 0.03800000, 0.00000000, 0.00204000
2933, 0.04433333, 0.00000000, 0.00204000
2934, 0.05066667, 0.00000000, 0.00204000
2935, 0.05700000, 0.00000000, 0.00204000
2936, 0.06333333, 0.00000000, 0.00204000
2937, 0.06966667, 0.00000000, 0.00204000
2938, 0.07600000, 0.00000000, 0.00204000
2939, 0.08233333, 0.00000000, 0.00204000
2940, 0.08866667, 0.00000000, 0.00204000
2941, 0.09500000, 0.00000000, 0.00204000
2942, 0.10133333, 0.00000000, 0.00204000
2943, 0.10766667, 0.00000000, 0.00204000
2944, 0.11400000, 0.00000000, 0.00204000
2945, 0.12033333, 0.00000000, 0.00204000
2946, 0.12666667, 0.00000000, 0.00204000
2947, 0.13300000, 0.00000000, 0.00204000
2948, 0.13933333, 0.00000000, 0.00204000
2949, 0.14566667, 0.00000000, 0.00204000
2950, 0.15200000, 0.00000000, 0.00204000
2951, 0.00000000, 0.00633333, 0.00204000
2952, 0.00633333, 0.00633333, 0.00204000
2953, 0.01266667, 0.00633333, 0.00204000
2954, 0.01900000, 0.00633333, 0.00204000
2955, 0.02533333, 0.00633333, 0.00204000
2956, 0.03166667, 0.00633333, 0.00204000
2957, 0.03800000, 0.00633333, 0.00204000
2958, 0.04433333, 0.00633333, 0.00204000
2959, 0.05066667, 0.00633333, 0.00204000
2960, 0.05700000, 0.00633333, 0.00204000
2961, 0.06333333, 0.00633333, 0.00204000
2962, 0.06966667, 0.00633333, 0.00204000
2963, 0.07600000, 0.00633333, 0.00204000
2964, 0.08233333, 0.00633333, 0.00204000
2965, 0.08866667, 0.00633333, 0.00204000
2966, 0.09500000, 0.00633333, 0.00204000
2967, 0.10133333, 0.00633333, 0.00204000
2968, 0.10766667, 0.00633333, 0.00204000
2969, 0.11400000, 0.00633333, 0.00204000
2970, 0.12033333, 0.00633333, 0.00204000
2971, 0.12666667, 0.00633333, 0.00204000
2972, 0.13300000, 0.00633333, 0.00204000
2973, 0.13933333, 0.00633333, 0.00204000
2974, 0.14566667, 0.00633333, 0.00204000
2975, 0.15200000, 0.00633333, 0.00204000
2976, 0.00000000, 0.01266667, 0.00204000
2977, 0.00633333, 0.01266667, 0.00204000
2978, 0.01266667, 0.01266667, 0.00204000
2979, 0.01900000, 0.01266667, 0.00204000
2980, 0.02533333, 0.01266667, 0.00204000
2981, 0.03166667, 0.01266667, 0.00204000
2982, 0.03800000, 0.01266667, 0.00204000
2983, 0.04433333, 0.01266667, 0.00204000
2984, 0.05066667, 0.01266667, 0.00204000
2985, 0.05700000, 0.01266667, 0.00204000
2986, 0.06333333, 0.01266667, 0.00204000
2987, 0.06966667, 0.01266667, 0.00204000
2988, 0.07600000, 0.01266667, 0.00204000
2989, 0.08233333, 0.01266667, 0.00204000
2990, 0.08866667, 0.01266667, 0.00204000
2991, 0.09500000, 0.01266667, 0.00204000
2992, 0.10133333, 0.01266667, 0.00204000
2993, 0.10766667, 0.01266667, 0.00204000
2994, 0.11400000, 0.01266667, 0.00204000
2995, 0.12033333, 0.01266667, 0.00204000
2996, 0.12666667, 0.01266667, 0.00204000
2997, 0.13300000, 0.01266667, 0.00204000
2998, 0.13933333, 0.01266667, 0.00204000
2999, 0.14566667, 0.01266667, 0.00204000
3000, 0.15200000, 0.01266667, 0.00204000
3001, 0.00000000, 0.01900000, 0.00204000
3002, 0.00633333, 0.01900000, 0.00204000
3003, 0.01266667, 0.01900000, 0.00204000
3004, 0.01900000, 0.01900000, 0.00204000
3005, 0.02533333, 0.01900000, 0.00204000
3006, 0.03166667, 0.01900000, 0.00204000
3007, 0.03800000, 0.01900000, 0.00204000
3008, 0.04433333, 0.01900000, 0.00204000
3009, 0.05066667, 0.01900000, 0.00204000
3010, 0.05700000, 0.01900000, 0.00204000
3011, 0.06333333, 0.01900000, 0.00204000
3012, 0.06966667, 0.01900000, 0.00204000
3013, 0.07600000, 0.01900000, 0.00204000
3014, 0.08233333, 0.01900000, 0.00204000
3015, 0.08866667, 0.01900000, 0.00204000
3016, 0.09500000, 0.01900000, 0.00204000
3017, 0.10133333, 0.01900000, 0.00204000
3018, 0.10766667, 0.01900000, 0.00204000
3019, 0.11400000, 0.01900000, 0.00204000
3020, 0.12033333, 0.01900000, 0.00204000
3021, 0.12666667, 0.01900000, 0.00204000
3022, 0.13300000, 0.01900000, 0.00204000
3023, 0.13933333, 0.01900000, 0.00204000
3024, 0.14566667, 0.01900000, 0.00204000
3025, 0.15200000, 0.01900000, 0.00204000
3026, 0.00000000, 0.02533333, 0.00204000
3027, 0.00633333, 0.02533333, 0.00204000
3028, 0.01266667, 0.02533333, 0.00204000
3029, 0.01900000, 0.02533333, 0.00204000
3030, 0.02533333, 0.02533333, 0.00204000
3031, 0.03166667, 0.02533333, 0.00204000
3032, 0.03800000, 0.02533333, 0.00204000
3033, 0.04433333, 0.02533333, 0.00204000
3034, 0.05066667, 0.02533333, 0.00204000
3035, 0.05700000, 0.02533333, 0.00204000
3036, 0.06333333, 0.02533333, 0.00204000
3037, 0.06966667, 0.02533333, 0.00204000
3038, 0.07600000, 0.02533333, 0.00204000
3039, 0.08233333, 0.02533333, 0.00204000
3040, 0.08866667, 0.02533333, 0.00204000
3041, 0.09500000, 0.02533333, 0.00204000
3042, 0.10133333, 0.02533333, 0.00204000
3043, 0.10766667, 0.02533333, 0.00204000
3044, 0.11400000, 0.02533333, 0.00204000
3045, 0.12033333, 0.02533333, 0.00204000
3046, 0.12666667, 0.02533333, 0.00204000
3047, 0.13300000, 0.02533333, 0.00204000
3048, 0.13933333, 0.02533333, 0.00204000
3049, 0.14566667, 0.02533333, 0.00204000
3050, 0.15200000, 0.02533333, 0.00204000
3051, 0.00000000, 0.03166667, 0.00204000
3052, 0.00633333, 0.03166667, 0.00204000
3053, 0.01266667, 0.03166667, 0.00204000
3054, 0.01900000, 0.03166667, 0.00204000
3055, 0.02533333, 0.03166667, 0.00204000
3056, 0.03166667, 0.03166667, 0.00204000
3057, 0.03800000, 0.03166667, 0.00204000
3058, 0.04433333, 0.03166667, 0.00204000
3059, 0.05066667, 0.03166667, 0.00204000
3060, 0.05700000, 0.03166667, 0.00204000
3061, 0.06333333, 0.03166667, 0.00204000
3062, 0.06966667, 0.03166667, 0.00204000
3063, 0.07600000, 0.03166667, 0.00204000
3064, 0.08233333, 0.03166667, 0.00204000
3065, 0.08866667, 0.03166667, 0.00204000
3066, 0.09500000, 0.03166667, 0.00204000
3067, 0.10133333, 0.03166667, 0.00204000
3068, 0.10766667, 0.03166667, 0.00204000
3069, 0.11400000, 0.03166667, 0.00204000
3070, 0.12033333, 0.03166667, 0.00204000
3071, 0.12666667, 0.03166667, 0.00204000
3072, 0.13300000, 0.03166667, 0.00204000
3073, 0.13933333, 0.03166667, 0.00204000
3074, 0.14566667, 0.03166667, 0.00204000
3075, 0.15200000, 0.03166667, 0.00204000
3076, 0.00000000, 0.03800000, 0.00204000
3077, 0.00633333, 0.03800000, 0.00204000
3078, 0.01266667, 0.03800000, 0.00204000
3079, 0.01900000, 0.03800000, 0.00204000
3080, 0.02533333, 0.03800000, 0.00204000
3081, 0.03166667, 0.03800000, 0.00204000
3082, 0.03800000, 0.03800000, 0.00204000
3083, 0.04433333, 0.03800000, 0.00204000
3084, 0.05066667, 0.03800000, 0.00204000
3085, 0.05700000, 0.03800000, 0.00204000
3086, 0.06333333, 0.03800000, 0.00204000
3087, 0.06966667, 0.03800000, 0.00204000
3088, 0.07600000, 0.03800000, 0.00204000
3089, 0.08233333, 0.03800000, 0.00204000
3090, 0.08866667, 0.03800000, 0.00204000
3091, 0.09500000, 0.03800000, 0.00204000
3092, 0.10133333, 0.03800000, 0.00204000
3093, 0.10766667, 0.03800000, 0.00204000
3094, 0.11400000, 0.03800000, 0.00204000
3095, 0.12033333, 0.03800000, 0.00204000
3096, 0.12666667, 0.03800000, 0.00204000
3097, 0.13300000, 0.03800000, 0.00204000
3098, 0.13933333, 0.03800000, 0.00204000
3099, 0.14566667, 0.03800000, 0.00204000
3100, 0.15200000, 0.03800000, 0.00204000
3101, 0.00000000, 0.04433333, 0.00204000
3102, 0.00633333, 0.04433333, 0.00204000
3103, 0.01266667, 0.04433333, 0.00204000
3104, 0.01900000, 0.04433333, 0.00204000
3105, 0.02533333, 0.04433333, 0.00204000
3106, 0.03166667, 0.04433333, 0.00204000
3107, 0.03800000, 0.04433333, 0.00204000
3108, 0.04433333, 0.04433333, 0.00204000
3109, 0.05066667, 0.04433333, 0.00204000
3110, 0.05700000, 0.04433333, 0.00204000
3111, 0.06333333, 0.04433333, 0.00204000
3112, 0.06966667, 0.04433333, 0.00204000
3113, 0.07600000, 0.04433333, 0.00204000
3114, 0.08233333, 0.04433333, 0.00204000
3115, 0.08866667, 0.04433333, 0.00204000
3116, 0.09500000, 0.04433333, 0.00204000
3117, 0.10133333, 0.04433333, 0.00204000
3118, 0.10766667, 0.04433333, 0.00204000
3119, 0.11400000, 0.04433333, 0.00204000
3120, 0.12033333, 0.04433333, 0.00204000
3121, 0.12666667, 0.04433333, 0.00204000
3122, 0.13300000, 0.04433333, 0.00204000
3123, 0.13933333, 0.04433333, 0.00204000
3124, 0.14566667, 0.04433333, 0.00204000
3125, 0.15200000, 0.04433333, 0.00204000
3126, 0.00000000, 0.05066667, 0.00204000
3127, 0.00633333, 0.05066667, 0.00204000
3128, 0.01266667, 0.05066667, 0.00204000
3129, 0.01900000, 0.05066667, 0.00204000
3130, 0.02533333, 0.05066667, 0.00204000
3131, 0.03166667, 0.05066667, 0.00204000
3132, 0.03800000, 0.05066667, 0.00204000
3133, 0.04433333, 0.05066667, 0.00204000
3134, 0.05066667, 0.05066667, 0.00204000
3135, 0.05700000, 0.05066667, 0.00204000
3136, 0.06333333, 0.05066667, 0.00204000
3137, 0.06966667, 0.05066667, 0.00204000
3138, 0.07600000, 0.05066667, 0.00204000
3139, 0.08233333, 0.05066667, 0.00204000
3140, 0.08866667, 0.05066667, 0.00204000
3141, 0.09500000, 0.05066667, 0.00204000
3142, 0.10133333, 0.05066667, 0.00204000
3143, 0.10766667, 0.05066667, 0.00204000
3144, 0.11400000, 0.05066667, 0.00204000
3145, 0.12033333, 0.05066667, 0.00204000
3146, 0.12666667, 0.05066667, 0.00204000
3147, 0.13300000, 0.05066667, 0.00204000
3148, 0.13933333, 0.05066667, 0.00204000
3149, 0.14566667, 0.05066667, 0.00204000
3150, 0.15200000, 0.05066667, 0.00204000
3151, 0.00000000, 0.05700000, 0.00204000
3152, 0.00633333, 0.05700000, 0.00204000
3153, 0.01266667, 0.05700000, 0.00204000
3154, 0.01900000, 0.05700000, 0.00204000
3155, 0.02533333, 0.05700000, 0.00204000
3156, 0.03166667, 0.05700000, 0.00204000
3157, 0.03800000, 0.05700000, 0.00204000
3158, 0.04433333, 0.05700000, 0.00204000
3159, 0.05066667, 0.05700000, 0.00204000
3160, 0.05700000, 0.05700000, 0.00204000
3161, 0.06333333, 0.05700000, 0.00204000
3162, 0.06966667, 0.05700000, 0.00204000
3163, 0.07600000, 0.05700000, 0.00204000
3164, 0.08233333, 0.05700000, 0.00204000
3165, 0.08866667, 0.05700000, 0.00204000
3166, 0.09500000, 0.05700000, 0.00204000
3167, 0.10133333, 0.05700000, 0.00204000
3168, 0.10766667, 0.05700000, 0.00204000
3169, 0.11400000, 0.05700000, 0.00204000
3170, 0.12033333, 0.05700000, 0.00204000
3171, 0.12666667, 0.05700000, 0.00204000
3172, 0.13300000, 0.05700000, 0.00204000
3173, 0.13933333, 0.05700000, 0.00204000
3174, 0.14566667, 0.05700000, 0.00204000
3175, 0.15200000, 0.05700000, 0.00204000
3176, 0.00000000, 0.06333333, 0.00204000
3177, 0.00633333, 0.06333333, 0.00204000
3178, 0.01266667, 0.06333333, 0.00204000
3179, 0.01900000, 0.06333333, 0.00204000
3180, 0.02533333, 0.06333333, 0.00204000
3181, 0.03166667, 0.06333333, 0.00204000
3182, 0.03800000, 0.06333333, 0.00204000
3183, 0.04433333, 0.06333333, 0.00204000
3184, 0.05066667, 0.06333333, 0.00204000
3185, 0.05700000, 0.06333333, 0.00204000
3186, 0.06333333, 0.06333333, 0.00204000
3187, 0.06966667, 0.06333333, 0.00204000
3188, 0.07600000, 0.06333333, 0.00204000
3189, 0.08233333, 0.06333333, 0.00204000
3190, 0.08866667, 0.06333333, 0.00204000
3191, 0.09500000, 0.06333333, 0.00204000
3192, 0.10133333, 0.06333333, 0.00204000
3193, 0.10766667, 0.06333333, 0.00204000
3194, 0.11400000, 0.06333333, 0.00204000
3195, 0.12033333, 0.06333333, 0.00204000
3196, 0.12666667, 0.06333333, 0.00204000
3197, 0.13300000, 0.06333333, 0.00204000
3198, 0.13933333, 0.06333333, 0.00204000
3199, 0.14566667, 0.06333333, 0.00204000
3200, 0.15200000, 0.06333333, 0.00204000
3201, 0.00000000, 0.06966667, 0.00204000
3202, 0.00633333, 0.06966667, 0.00204000
3203, 0.01266667, 0.06966667, 0.00204000
3204, 0.01900000, 0.06966667, 0.00204000
3205, 0.02533333, 0.06966667, 0.00204000
3206, 0.03166667, 0.06966667, 0.00204000
3207, 0.03800000, 0.06966667, 0.00204000
3208, 0.04433333, 0.06966667, 0.00204000
3209, 0.05066667, 0.06966667, 0.00204000
3210, 0.05700000, 0.06966667, 0.00204000
3211, 0.06333333, 0.06966667, 0.00204000
3212, 0.06966667, 0.06966667, 0.00204000
3213, 0.07600000, 0.06966667, 0.00204000
3214, 0.08233333, 0.06966667, 0.00204000
3215, 0.08866667, 0.06966667, 0.00204000
3216, 0.09500000, 0.06966667, 0.00204000
3217, 0.10133333, 0.06966667, 0.00204000
3218, 0.10766667, 0.06966667, 0.00204000
3219, 0.11400000, 0.06966667, 0.00204000
3220, 0.12033333, 0.06966667, 0.00204000
3221, 0.12666667, 0.06966667, 0.00204000
3222, 0.13300000, 0.06966667, 0.00204000
3223, 0.13933333, 0.06966667, 0.00204000
3224, 0.14566667, 0.06966667, 0.00204000
3225, 0.15200000, 0.06966667, 0.00204000
3226, 0.00000000, 0.07600000, 0.00204000
3227, 0.00633333, 0.07600000, 0.00204000
3228, 0.01266667, 0.07600000, 0.00204000
3229, 0.01900000, 0.07600000, 0.00204000
3230, 0.02533333, 0.07600000, 0.00204000
3231, 0.03166667, 0.07600000, 0.00204000
3232, 0.03800000, 0.07600000, 0.00204000
3233, 0.04433333, 0.07600000, 0.00204000
3234, 0.05066667, 0.07600000, 0.00204000
3235, 0.05700000, 0.07600000, 0.00204000
3236, 0.06333333, 0.07600000, 0.00204000
3237, 0.06966667, 0.07600000, 0.00204000
3238, 0.07600000, 0.07600000, 0.00204000
3239, 0.08233333, 0.07600000, 0.00204000
3240, 0.08866667, 0.07600000, 0.00204000
3241, 0.09500000, 0.07600000, 0.00204000
3242, 0.10133333, 0.07600000, 0.00204000
3243, 0.10766667, 0.07600000, 0.00204000
3244, 0.11400000, 0.07600000, 0.00204000
3245, 0.12033333, 0.07600000, 0.00204000
3246, 0.12666667, 0.07600000, 0.00204000
3247, 0.13300000, 0.07600000, 0.00204000
3248, 0.13933333, 0.07600000, 0.00204000
3249, 0.14566667, 0.07600000, 0.00204000
3250, 0.15200000, 0.07600000, 0.00204000
*ELEMENT, TYPE=C3D8I
1, 1, 2, 27, 26, 326, 327, 352, 351
2, 2, 3, 28, 27, 327, 328, 353, 352
3, 3, 4, 29, 28, 328, 329, 354, 353
4, 4, 5, 30, 29, 329, 330, 355, 354
5, 5, 6, 31, 30, 330, 331, 356, 355
6, 6, 7, 32, 31, 331, 332, 357, 356
7, 7, 8, 33, 32, 332, 333, 358, 357
8, 8, 9, 34, 33, 333, 334, 359, 358
9, 9, 10, 35, 34, 334, 335, 360, 359
10, 10, 11, 36, 35, 335, 336, 361, 360
11, 11, 12, 37, 36, 336, 337, 362, 361
12, 12, 13, 38, 37, 337, 338, 363, 362
13, 13, 14, 39, 38, 338, 339, 364, 363
14, 14, 15, 40, 39, 339, 340, 365, 364
15, 15, 16, 41, 40, 340, 341, 366, 365
16, 16, 17, 42, 41, 341, 342, 367, 366
17, 17, 18, 43, 42, 342, 343, 368, 367
18, 18, 19, 44, 43, 343, 344, 369, 368
19, 19, 20, 45, 44, 344, 345, 370, 369
20, 20, 21, 46, 45, 345, 346, 371, 370
21, 21, 22, 47, 46, 346, 347, 372, 371
22, 22, 23, 48, 47, 347, 348, 373, 372
23, 23, 24, 49, 48, 348, 349, 374, 373
24, 24, 25, 50, 49, 349, 350, 375, 374
25, 26, 27, 52, 51, 351, 352, 377, 376
26, 27, 28, 53, 52, 352, 353, 378, 377
27, 28, 29, 54, 53, 353, 354, 379, 378
28, 29, 30, 55, 54, 354, 355, 380, 379
29, 30, 31, 56, 55, 355, 356, 381, 380
30, 31, 32, 57, 56, 356, 357, 382, 381
31, 32, 33, 58, 57, 357, 358, 383, 382
32, 33, 34, 59, 58, 358, 359, 384, 383
33, 34, 35, 60, 59, 359, 360, 385, 384
34, 35, 36, 61, 60, 360, 361, 386, 385
35, 36, 37, 62, 61, 361, 362, 387, 386
36, 37, 38, 63, 62, 362, 363, 388, 387
37, 38, 39, 64, 63, 363, 364, 389, 388
38, 39, 40, 65, 64, 364, 365, 390, 389
39, 40, 41, 66, 65, 365, 366, 391, 390
40, 41, 42, 67, 66, 366, 367, 392, 391
41, 42, 43, 68, 67, 367, 368, 393, 392
42, 43, 44, 69, 68, 368, 369, 394, 393
43, 44, 45, 70, 69, 369, 370, 395, 394
44, 45, 46, 71, 70, 370, 371, 396, 395
45, 46, 47, 72, 71, 371, 372, 397, 396
46, 47, 48, 73, 72, 372, 373, 398, 397
47, 48, 49, 74, 73, 373, 374, 399, 398
48, 49, 50, 75, 74, 374, 375, 400, 399
49, 51, 52, 77, 76, 376, 377, 402, 401
50, 52, 53, 78, 77, 377, 378, 403, 402
51, 53, 54, 79, 78, 378, 379, 404, 403
52, 54, 55, 80, 79, 379, 380, 405, 404
53, 55, 56, 81, 80, 380, 381, 406, 405
54, 56, 57, 82, 81, 381, 382, 407, 406
55, 57, 58, 83, 82, 382, 383, 408, 407
56, 58, 59, 84, 83, 383, 384, 409, 408
57, 59, 60, 85, 84, 384, 385, 410, 409
58, 60, 61, 86, 85, 385, 386, 411, 410
59, 61, 62, 87, 86, 386, 387, 412, 411
60, 62, 63, 88, 87, 387, 388, 413, 412
61, 63, 64, 89, 88, 388, 389, 414, 413
62, 64, 65, 90, 89, 389, 390, 415, 414
63, 65, 66, 91, 90, 390, 391, 416, 415
64, 66, 67, 92, 91, 391, 392, 417, 416
65, 67, 68, 93, 92, 392, 393, 418, 417
66, 68, 69, 94, 93, 393, 394, 419, 418
67, 69, 70, 95, 94, 394, 395, 420, 419
68, 70, 71, 96, 95, 395, 396, 421, 420
69, 71, 72, 97, 96, 396, 397, 422, 421
70, 72, 73, 98, 97, 397, 398, 423, 422
71, 73, 74, 99, 98, 398, 399, 424, 423
72, 74, 75, 100, 99, 399, 400, 425, 424
73, 76, 77, 102, 101, 401, 402, 427, 426
74, 77, 78, 103, 102, 402, 403, 428, 427
75, 78, 79, 104, 103, 403, 404, 429, 428
76, 79, 80, 105, 104, 404, 405, 430, 429
77, 80, 81, 106, 105, 405, 406, 431, 430
78, 81, 82, 107, 106, 406, 407, 432, 431
79, 82, 83, 108, 107, 407, 408, 433, 432
80, 83, 84, 109, 108, 408, 409, 434, 433
81, 84, 85, 110, 109, 409, 410, 435, 434
82, 85, 86, 111, 110, 410, 411, 436, 435
83, 86, 87, 112, 111, 411, 412, 437, 436
84, 87, 88, 113, 112, 412, 413, 438, 437
85, 88, 89, 114, 113, 413, 414, 439, 438
86, 89, 90, 115, 114, 414, 415, 440, 439
87, 90, 91, 116, 115, 415, 416, 441, 440
88, 91, 92, 117, 116, 416, 417, 442, 441
89, 92, 93, 118, 117, 417, 418, 443, 442
90, 93, 94, 119, 118, 418, 419, 444, 443
91, 94, 95, 120, 119, 419, 420, 445, 444
92, 95, 96, 121, 120, 420, 421, 446, 445
93, 96, 97, 122, 121, 421, 422, 447, 446
94, 97, 98, 123, 122, 422, 423, 448, 447
95, 98, 99, 124, 123, 423, 424, 449, 448
96, 99, 100, 125, 124, 424, 425, 450, 449
97, 101, 102, 127, 126, 426, 427, 452, 451
98, 102, 103, 128, 127, 427, 428, 453, 452
99, 103, 104, 129, 128, 428, 429, 454, 453
100, 104, 105, 130, 129, 429, 430, 455, 454
101, 105, 106, 131, 130, 430, 431, 456, 455
102, 106, 107, 132, 131, 431, 432, 457, 456
103, 107, 108, 133, 132, 432, 433, 458, 457
104, 108, 109, 134, 133, 433, 434, 459, 458
105, 109, 110, 135, 134, 434, 435, 460, 459
106, 110, 111, 136, 135, 435, 436, 461, 460
107, 111, 112, 137, 136, 436, 437, 462, 461
108, 112, 113, 138, 137, 437, 438, 463, 462
109, 113, 114, 139, 138, 438, 439, 464, 463
110, 114, 115, 140, 139, 439, 440, 465, 464
111, 115, 116, 141, 140, 440, 441, 466, 465
112, 116, 117, 142, 141, 441, 442, 467, 466
113, 117, 118, 143, 142, 442, 443, 468, 467
114, 118, 119, 144, 143, 443, 444, 469, 468
115, 119, 120, 145, 144, 444, 445, 470, 469
116, 120, 121, 146, 145, 445, 446, 471, 470
117, 121, 122, 147, 146, 446, 447, 472, 471
118, 122, 123, 148, 147, 447, 448, 473, 472
119, 123, 124, 149, 148, 448, 449, 474, 473
120, 124, 125, 150, 149, 449, 450, 475, 474
121, 126, 127, 152, 151, 451, 452, 477, 476
122, 127, 128, 153, 152, 452, 453, 478, 477
123, 128, 129, 154, 153, 453, 454, 479, 478
124, 129, 130, 155, 154, 454, 455, 480, 479
125, 130, 131, 156, 155, 455, 456, 481, 480
126, 131, 132, 157, 156, 456, 457, 482, 481
127, 132, 133, 158, 157, 457, 458, 483, 482
128, 133, 134, 159, 158, 458, 459, 484, 483
129, 134, 135, 160, 159, 459, 460, 485, 484
130, 135, 136, 161, 160, 460, 461, 486, 485
131, 136, 137, 162, 161, 461, 462, 487, 486
132, 137, 138, 163, 162, 462, 463, 488, 487
133, 138, 139, 164, 163, 463, 464, 489, 488
134, 139, 140, 165, 164, 464, 465, 490, 489
135, 140, 141, 166, 165, 465, 466, 491, 490
136, 141, 142, 167, 166, 466, 467, 492, 491
137, 142, 143, 168, 167, 467, 468, 493, 492
138, 143, 144, 169, 168, 468, 469, 494, 493
139, 144, 145, 170, 169, 469, 470, 495, 494
140, 145, 146, 171, 170, 470, 471, 496, 495
141, 146, 147, 172, 171, 471, 472, 497, 496
142, 147, 148, 173, 172, 472, 473, 498, 497
143, 148, 149, 174, 173, 473, 474, 499, 498
144, 149, 150, 175, 174, 474, 475, 500, 499
145, 151, 152, 177, 176, 476, 477, 502, 501
146, 152, 153, 178, 177, 477, 478, 503, 502
147, 153, 154, 179, 178, 478, 479, 504, 503
148, 154, 155, 180, 179, 479, 480, 505, 504
149, 155, 156, 181, 180, 480, 481, 506, 505
150, 156, 157, 182, 181, 481, 482, 507, 506
151, 157, 158, 183, 182, 482, 483, 508, 507
152, 158, 159, 184, 183, 483, 484, 509, 508
153, 159, 160, 185, 184, 484, 485, 510, 509
154, 160, 161, 186, 185, 485, 486, 511, 510
155, 161, 162, 187, 186, 486, 487, 512, 511
156, 162, 163, 188, 187, 487, 488, 513, 512
157, 163, 164, 189, 188, 488, 489, 514, 513
158, 164, 165, 190, 189, 489, 490, 515, 514
159, 165, 166, 191, 190, 490, 491, 516, 515
160, 166, 167, 192, 191, 491, 492, 517, 516
161, 167, 168, 193, 192, 492, 493, 518, 517
162, 168, 169, 194, 193, 493, 494, 519, 518
163, 169, 170, 195, 194, 494, 495, 520, 519
164, 170, 171, 196, 195, 495, 496, 521, 520
165, 171, 172, 197, 196, 496, 497, 522, 521
166, 172, 173, 198, 197, 497, 498, 523, 522
167, 173, 174, 199, 198, 498, 499, 524, 523
168, 174, 175, 200, 199, 499, 500, 525, 524
169, 176, 177, 202, 201, 501, 502, 527, 526
170, 177, 178, 203, 202, 502, 503, 528, 527
171, 178, 179, 204, 203, 503, 504, 529, 528
172, 179, 180, 205, 204, 504, 505, 530, 529
173, 180, 181, 206, 205, 505, 506, 531, 530
174, 181, 182, 207, 206, 506, 507, 532, 531
175, 182, 183, 208, 207, 507, 508, 533, 532
176, 183, 184, 209, 208, 508, 509, 534, 533
177, 184, 185, 210, 209, 509, 510, 535, 534
178, 185, 186, 211, 210, 510, 511, 536, 535
179, 186, 187, 212, 211, 511, 512, 537, 536
180, 187, 188, 213, 212, 512, 513, 538, 537
181, 188, 189, 214, 213, 513, 514, 539, 538
182, 189, 190, 215, 214, 514, 515, 540, 539
183, 190, 191, 216, 215, 515, 516, 541, 540
184, 191, 192, 217, 216, 516, 517, 542, 541
185, 192, 193, 218, 217, 517, 518, 543, 542
186, 193, 194, 219, 218, 518, 519, 544, 543
187, 194, 195, 220, 219, 519, 520, 545, 544
188, 195, 196, 221, 220, 520, 521, 546, 545
189, 196, 197, 222, 221, 521, 522, 547, 546
190, 197, 198, 223, 222, 522, 523, 548, 547
191, 198, 199, 224, 223, 523, 524, 549, 548
192, 199, 200, 225, 224, 524, 525, 550, 549
193, 201, 202, 227, 226, 526, 527, 552, 551
194, 202, 203, 228, 227, 527, 528, 553, 552
195, 203, 204, 229, 228, 528, 529, 554, 553
196, 204, 205, 230, 229, 529, 530, 555, 554
197, 205, 206, 231, 230, 530, 531, 556, 555
198, 206, 207, 232, 231, 531, 532, 557, 556
199, 207, 208, 233, 232, 532, 533, 558, 557
200, 208, 209, 234, 233, 533, 534, 559, 558
201, 209, 210, 235, 234, 534, 535, 560, 559
202, 210, 211, 236, 235, 535, 536, 561, 560
203, 211, 212, 237, 236, 536, 537, 562, 561
204, 212, 213, 238, 237, 537, 538, 563, 562
205, 213, 214, 239, 238, 538, 539, 564, 563
206, 214, 215, 240, 239, 539, 540, 565, 564
207, 215, 216, 241, 240, 540, 541, 566, 565
208, 216, 217, 242, 241, 541, 542, 567, 566
209, 217, 218, 243, 242, 542, 543, 568, 567
210, 218, 219, 244, 243, 543, 544, 569, 568
211, 219, 220, 245, 244, 544, 545, 570, 569
212, 220, 221, 246, 245, 545, 546, 571, 570
213, 221, 222, 247, 246, 546, 547, 572, 571
214, 222, 223, 248, 247, 547, 548, 573, 572
215, 223, 224, 249, 248, 548, 549, 574, 573
216, 224, 225, 250, 249, 549, 550, 575, 574
217, 226, 227, 252, 251, 551, 552, 577, 576
218, 227, 228, 253, 252, 552, 553, 578, 577
219, 228, 229, 254, 253, 553, 554, 579, 578
220, 229, 230, 255, 254, 554, 555, 580, 579
221, 230, 231, 256, 255, 555, 556, 581, 580
222, 231, 232, 257, 256, 556, 557, 582, 581
223, 232, 233, 258, 257, 557, 558, 583, 582
224, 233, 234, 259, 258, 558, 559, 584, 583
225, 234, 235, 260, 259, 559, 560, 585, 584
226, 235, 236, 261, 260, 560, 561, 586, 585
227, 236, 237, 262, 261, 561, 562, 587, 586
228, 237, 238, 263, 262, 562, 563, 588, 587
229, 238, 239, 264, 263, 563, 564, 589, 588
230, 239, 240, 265, 264, 564, 565, 590, 589
231, 240, 241, 266, 265, 565, 566, 591, 590
232, 241, 242, 267, 266, 566, 567, 592, 591
233, 242, 243, 268, 267, 567, 568, 593, 592
234, 243, 244, 269, 268, 568, 569, 594, 593
235, 244, 245, 270, 269, 569, 570, 595, 594
236, 245, 246, 271, 270, 570, 571, 596, 595
237, 246, 247, 272, 271, 571, 572, 597, 596
238, 247, 248, 273, 272, 572, 573, 598, 597
239, 248, 249, 274, 273, 573, 574, 599, 598
240, 249, 250, 275, 274, 574, 575, 600, 599
241, 251, 252, 277, 276, 576, 577, 602, 601
242, 252, 253, 278, 277, 577, 578, 603, 602
243, 253, 254, 279, 278, 578, 579, 604, 603
244, 254, 255, 280, 279, 579, 580, 605, 604
245, 255, 256, 281, 280, 580, 581, 606, 605
246, 256, 257, 282, 281, 581, 582, 607, 606
247, 257, 258, 283, 282, 582, 583, 608, 607
248, 258, 259, 284, 283, 583, 584, 609, 608
249, 259, 260, 285, 284, 584, 585, 610, 609
250, 260, 261, 286, 285, 585, 586, 611, 610
251, 261, 262, 287, 286, 586, 587, 612, 611
252, 262, 263, 288, 287, 587, 588, 613, 612
253, 263, 264, 289, 288, 588, 589, 614, 613
254, 264, 265, 290, 289, 589, 590, 615, 614
255, 265, 266, 291, 290, 590, 591, 616, 615
256, 266, 267, 292, 291, 591, 592, 617, 616
257, 267, 268, 293, 292, 592, 593, 618, 617
258, 268, 269, 294, 293, 593, 594, 619, 618
259, 269, 270, 295, 294, 594, 595, 620, 619
260, 270, 271, 296, 295, 595, 596, 621, 620
261, 271, 272, 297, 296, 596, 597, 622, 621
262, 272, 273, 298, 297, 597, 598, 623, 622
263, 273, 274, 299, 298, 598, 599, 624, 623
264, 274, 275, 300, 299, 599, 600, 625, 624
265, 276, 277, 302, 301, 601, 602, 627, 626
266, 277, 278, 303, 302, 602, 603, 628, 627
267, 278, 279, 304, 303, 603, 604, 629, 628
268, 279, 280, 305, 304, 604, 605, 630, 629
269, 280, 281, 306, 305, 605, 606, 631, 630
270, 281, 282, 307, 306, 606, 607, 632, 631
271, 282, 283, 308, 307, 607, 608, 633, 632
272, 283, 284, 309, 308, 608, 609, 634, 633
273, 284, 285, 310, 309, 609, 610, 635, 634
274, 285, 286, 311, 310, 610, 611, 636, 635
275, 286, 287, 312, 311, 611, 612, 637, 636
276, 287, 288, 313, 312, 612, 613, 638, 637
277, 288, 289, 314, 313, 613, 614, 639, 638
278, 289, 290, 315, 314, 614, 615, 640, 639
279, 290, 291, 316, 315, 615, 616, 641, 640
280, 291, 292, 317, 316, 616, 617, 642, 641
281, 292, 293, 318, 317, 617, 618, 643, 642
282, 293, 294, 319, 318, 618, 619, 644, 643
283, 294, 295, 320, 319, 619, 620, 645, 644
284, 295, 296, 321, 320, 620, 621, 646, 645
285, 296, 297, 322, 321, 621, 622, 647, 646
286, 297, 298, 323, 322, 622, 623, 648, 647
287, 298, 299, 324, 323, 623, 624, 649, 648
288, 299, 300, 325, 324, 624, 625, 650, 649
289, 326, 327, 352, 351, 651, 652, 677, 676
290, 327, 328, 353, 352, 652, 653, 678, 677
291, 328, 329, 354, 353, 653, 654, 679, 678
292, 329, 330, 355, 354, 654, 655, 680, 679
293, 330, 331, 356, 355, 655, 656, 681, 680
294, 331, 332, 357, 356, 656, 657, 682, 681
295, 332, 333, 358, 357, 657, 658, 683, 682
296, 333, 334, 359, 358, 658, 659, 684, 683
297, 334, 335, 360, 359, 659, 660, 685, 684
298, 335, 336, 361, 360, 660, 661, 686, 685
299, 336, 337, 362, 361, 661, 662, 687, 686
300, 337, 338, 363, 362, 662, 663, 688, 687
301, 338, 339, 364, 363, 663, 664, 689, 688
302, 339, 340, 365, 364, 664, 665, 690, 689
303, 340, 341, 366, 365, 665, 666, 691, 690
304, 341, 342, 367, 366, 666, 667, 692, 691
305, 342, 343, 368, 367, 667, 668, 693, 692
306, 343, 344, 369, 368, 668, 669, 694, 693
307, 344, 345, 370, 369, 669, 670, 695, 694
308, 345, 346, 371, 370, 670, 671, 696, 695
309, 346, 347, 372, 371, 671, 672, 697, 696
310, 347, 348, 373, 372, 672, 673, 698, 697
311, 348, 349, 374, 373, 673, 674, 699, 698
312, 349, 350, 375, 374, 674, 675, 700, 699
313, 351, 352, 377, 376, 676, 677, 702, 701
314, 352, 353, 378, 377, 677, 678, 703, 702
315, 353, 354, 379, 378, 678, 679, 704, 703
316, 354, 355, 380, 379, 679, 680, 705, 704
317, 355, 356, 381, 380, 680, 681, 706, 705
318, 356, 357, 382, 381, 681, 682, 707, 706
319, 357, 358, 383, 382, 682, 683, 708, 707
320, 358, 359, 384, 383, 683, 684, 709, 708
321, 359, 360, 385, 384, 684, 685, 710, 709
322, 360, 361, 386, 385, 685, 686, 711, 710
323, 361, 362, 387, 386, 686, 687, 712, 711
324, 362, 363, 388, 387, 687, 688, 713, 712
325, 363, 364, 389, 388, 688, 689, 714, 713
326, 364, 365, 390, 389, 689, 690, 715, 714
327, 365, 366, 391, 390, 690, 691, 716, 715
328, 366, 367, 392, 391, 691, 692, 717, 716
329, 367, 368, 393, 392, 692, 693, 718, 717
330, 368, 369, 394, 393, 693, 694, 719, 718
331, 369, 370, 395, 394, 694, 695, 720, 719
332, 370, 371, 396, 395, 695, 696, 721, 720
333, 371, 372, 397, 396, 696, 697, 722, 721
334, 372, 373, 398, 397, 697, 698, 723, 722
335, 373, 374, 399, 398, 698, 699, 724, 723
336, 374, 375, 400, 399, 699, 700, 725, 724
337, 376, 377, 402, 401, 701, 702, 727, 726
338, 377, 378, 403, 402, 702, 703, 728, 727
339, 378, 379, 404, 403, 703, 704, 729, 728
340, 379, 380, 405, 404, 704, 705, 730, 729
341, 380, 381, 406, 405, 705, 706, 731, 730
342, 381, 382, 407, 406, 706, 707, 732, 731
343, 382, 383, 408, 407, 707, 708, 733, 732
344, 383, 384, 409, 408, 708, 709, 734, 733
345, 384, 385, 410, 409, 709, 710, 735, 734
346, 385, 386, 411, 410, 710, 711, 736, 735
347, 386, 387, 412, 411, 711, 712, 737, 736
348, 387, 388, 413, 412, 712, 713, 738, 737
349, 388, 389, 414, 413, 713, 714, 739, 738
350, 389, 390, 415, 414, 714, 715, 740, 739
351, 390, 391, 416, 415, 715, 716, 741, 740
352, 391, 392, 417, 416, 716, 717, 742, 741
353, 392, 393, 418, 417, 717, 718, 743, 742
354, 393, 394, 419, 418, 718, 719, 744, 743
355, 394, 395, 420, 419, 719, 720, 745, 744
356, 395, 396, 421, 420, 720, 721, 746, 745
357, 396, 397, 422, 421, 721, 722, 747, 746
358, 397, 398, 423, 422, 722, 723, 748, 747
359, 398, 399, 424, 423, 723, 724, 749, 748
360, 399, 400, 425, 424, 724, 725, 750, 749
361, 401, 402, 427, 426, 726, 727, 752, 751
362, 402, 403, 428, 427, 727, 728, 753, 752
363, 403, 404, 429, 428, 728, 729, 754, 753
364, 404, 405, 430, 429, 729, 730, 755, 754
365, 405, 406, 431, 430, 730, 731, 756, 755
366, 406, 407, 432, 431, 731, 732, 757, 756
367, 407, 408, 433, 432, 732, 733, 758, 757
368, 408, 409, 434, 433, 733, 734, 759, 758
369, 409, 410, 435, 434, 734, 735, 760, 759
370, 410, 411, 436, 435, 735, 736, 761, 760
371, 411, 412, 437, 436, 736, 737, 762, 761
372, 412, 413, 438, 437, 737, 738, 763, 762
373, 413, 414, 439, 438, 738, 739, 764, 763
374, 414, 415, 440, 439, 739, 740, 765, 764
375, 415, 416, 441, 440, 740, 741, 766, 765
376, 416, 417, 442, 441, 741, 742, 767, 766
377, 417, 418, 443, 442, 742, 743, 768, 767
378, 418, 419, 444, 443, 743, 744, 769, 768
379, 419, 420, 445, 444, 744, 745, 770, 769
380, 420, 421, 446, 445, 745, 746, 771, 770
381, 421, 422, 447, 446, 746, 747, 772, 771
382, 422, 423, 448, 447, 747, 748, 773, 772
383, 423, 424, 449, 448, 748, 749, 774, 773
384, 424, 425, 450, 449, 749, 750, 775, 774
385, 426, 427, 452, 451, 751, 752, 777, 776
386, 427, 428, 453, 452, 752, 753, 778, 777
387, 428, 429, 454, 453, 753, 754, 779, 778
388, 429, 430, 455, 454, 754, 755, 780, 779
389, 430, 431, 456, 455, 755, 756, 781, 780
390, 431, 432, 457, 456, 756, 757, 782, 781
391, 432, 433, 458, 457, 757, 758, 783, 782
392, 433, 434, 459, 458, 758, 759, 784, 783
393, 434, 435, 460, 459, 759, 760, 785, 784
394, 435, 436, 461, 460, 760, 761, 786, 785
395, 436, 437, 462, 461, 761, 762, 787, 786
396, 437, 438, 463, 462, 762, 763, 788, 787
397, 438, 439, 464, 463, 763, 764, 789, 788
398, 439, 440, 465, 464, 764, 765, 790, 789
399, 440, 441, 466, 465, 765, 766, 791, 790
400, 441, 442, 467, 466, 766, 767, 792, 791
401, 442, 443, 468, 467, 767, 768, 793, 792
402, 443, 444, 469, 468, 768, 769, 794, 793
403, 444, 445, 470, 469, 769, 770, 795, 794
404, 445, 446, 471, 470, 770, 771, 796, 795
405, 446, 447, 472, 471, 771, 772, 797, 796
406, 447, 448, 473, 472, 772, 773, 798, 797
407, 448, 449, 474, 473, 773, 774, 799, 798
408, 449, 450, 475, 474, 774, 775, 800, 799
409, 451, 452, 477, 476, 776, 777, 802, 801
410, 452, 453, 478, 477, 777, 778, 803, 802
411, 453, 454, 479, 478, 778, 779, 804, 803
412, 454, 455, 480, 479, 779, 780, 805, 804
413, 455, 456, 481, 480, 780, 781, 806, 805
414, 456, 457, 482, 481, 781, 782, 807, 806
415, 457, 458, 483, 482, 782, 783, 808, 807
416, 458, 459, 484, 483, 783, 784, 809, 808
417, 459, 460, 485, 484, 784, 785, 810, 809
418, 460, 461, 486, 485, 785, 786, 811, 810
419, 461, 462, 487, 486, 786, 787, 812, 811
420, 462, 463, 488, 487, 787, 788, 813, 812
421, 463, 464, 489, 488, 788, 789, 814, 813
422, 464, 465, 490, 489, 789, 790, 815, 814
423, 465, 466, 491, 490, 790, 791, 816, 815
424, 466, 467, 492, 491, 791, 792, 817, 816
425, 467, 468, 493, 492, 792, 793, 818, 817
426, 468, 469, 494, 493, 793, 794, 819, 818
427, 469, 470, 495, 494, 794, 795, 820, 819
428, 470, 471, 496, 495, 795, 796, 821, 820
429, 471, 472, 497, 496, 796, 797, 822, 821
430, 472, 473, 498, 497, 797, 798, 823, 822
431, 473, 474, 499, 498, 798, 799, 824, 823
432, 474, 475, 500, 499, 799, 800, 825, 824
433, 476, 477, 502, 501, 801, 802, 827, 826
434, 477, 478, 503, 502, 802, 803, 828, 827
435, 478, 479, 504, 503, 803, 804, 829, 828
436, 479, 480, 505, 504, 804, 805, 830, 829
437, 480, 481, 506, 505, 805, 806, 831, 830
438, 481, 482, 507, 506, 806, 807, 832, 831
439, 482, 483, 508, 507, 807, 808, 833, 832
440, 483, 484, 509, 508, 808, 809, 834, 833
441, 484, 485, 510, 509, 809, 810, 835, 834
442, 485, 486, 511, 510, 810, 811, 836, 835
443, 486, 487, 512, 511, 811, 812, 837, 836
444, 487, 488, 513, 512, 812, 813, 838, 837
445, 488, 489, 514, 513, 813, 814, 839, 838
446, 489, 490, 515, 514, 814, 815, 840, 839
447, 490, 491, 516, 515, 815, 816, 841, 840
448, 491, 492, 517, 516, 816, 817, 842, 841
449, 492, 493, 518, 517, 817, 818, 843, 842
450, 493, 494, 519, 518, 818, 819, 844, 843
451, 494, 495, 520, 519, 819, 820, 845, 844
452, 495, 496, 521, 520, 820, 821, 846, 845
453, 496, 497, 522, 521, 821, 822, 847, 846
454, 497, 498, 523, 522, 822, 823, 848, 847
455, 498, 499, 524, 523, 823, 824, 849, 848
456, 499, 500, 525, 524, 824, 825, 850, 849
457, 501, 502, 527, 526, 826, 827, 852, 851
458, 502, 503, 528, 527, 827, 828, 853, 852
459, 503, 504, 529, 528, 828, 829, 854, 853
460, 504, 505, 530, 529, 829, 830, 855, 854
461, 505, 506, 531, 530, 830, 831, 856, 855
462, 506, 507, 532, 531, 831, 832, 857, 856
463, 507, 508, 533, 532, 832, 833, 858, 857
464, 508, 509, 534, 533, 833, 834, 859, 858
465, 509, 510, 535, 534, 834, 835, 860, 859
466, 510, 511, 536, 535, 835, 836, 861, 860
467, 511, 512, 537, 536, 836, 837, 862, 861
468, 512, 513, 538, 537, 837, 838, 863, 862
469, 513, 514, 539, 538, 838, 839, 864, 863
470, 514, 515, 540, 539, 839, 840, 865, 864
471, 515, 516, 541, 540, 840, 841, 866, 865
472, 516, 517, 542, 541, 841, 842, 867, 866
473, 517, 518, 543, 542, 842, 843, 868, 867
474, 518, 519, 544, 543, 843, 844, 869, 868
475, 519, 520, 545, 544, 844, 845, 870, 869
476, 520, 521, 546, 545, 845, 846, 871, 870
477, 521, 522, 547, 546, 846, 847, 872, 871
478, 522, 523, 548, 547, 847, 848, 873, 872
479, 523, 524, 549, 548, 848, 849, 874, 873
480, 524, 525, 550, 549, 849, 850, 875, 874
481, 526, 527, 552, 551, 851, 852, 877, 876
482, 527, 528, 553, 552, 852, 853, 878, 877
483, 528, 529, 554, 553, 853, 854, 879, 878
484, 529, 530, 555, 554, 854, 855, 880, 879
485, 530, 531, 556, 555, 855, 856, 881, 880
486, 531, 532, 557, 556, 856, 857, 882, 881
487, 532, 533, 558, 557, 857, 858, 883, 882
488, 533, 534, 559, 558, 858, 859, 884, 883
489, 534, 535, 560, 559, 859, 860, 885, 884
490, 535, 536, 561, 560, 860, 861, 886, 885
491, 536, 537, 562, 561, 861, 862, 887, 886
492, 537, 538, 563, 562, 862, 863, 888, 887
493, 538, 539, 564, 563, 863, 864, 889, 888
494, 539, 540, 565, 564, 864, 865, 890, 889
495, 540, 541, 566, 565, 865, 866, 891, 890
496, 541, 542, 567, 566, 866, 867, 892, 891
497, 542, 543, 568, 567, 867, 868, 893, 892
498, 543, 544, 569, 568, 868, 869, 894, 893
499, 544, 545, 570, 569, 869, 870, 895, 894
500, 545, 546, 571, 570, 870, 871, 896, 895
501, 546, 547, 572, 571, 871, 872, 897, 896
502, 547, 548, 573, 572, 872, 873, 898, 897
503, 548, 549, 574, 573, 873, 874, 899, 898
504, 549, 550, 575, 574, 874, 875, 900, 899
505, 551, 552, 577, 576, 876, 877, 902, 901
506, 552, 553, 578, 577, 877, 878, 903, 902
507, 553, 554, 579, 578, 878, 879, 904, 903
508, 554, 555, 580, 579, 879, 880, 905, 904
509, 555, 556, 581, 580, 880, 881, 906, 905
510, 556, 557, 582, 581, 881, 882, 907, 906
511, 557, 558, 583, 582, 882, 883, 908, 907
512, 558, 559, 584, 583, 883, 884, 909, 908
513, 559, 560, 585, 584, 884, 885, 910, 909
514, 560, 561, 586, 585, 885, 886, 911, 910
515, 561, 562, 587, 586, 886, 887, 912, 911
516, 562, 563, 588, 587, 887, 888, 913, 912
517, 563, 564, 589, 588, 888, 889, 914, 913
518, 564, 565, 590, 589, 889, 890, 915, 914
519, 565, 566, 591, 590, 890, 891, 916, 915
520, 566, 567, 592, 591, 891, 892, 917, 916
521, 567, 568, 593, 592, 892, 893, 918, 917
522, 568, 569, 594, 593, 893, 894, 919, 918
523, 569, 570, 595, 594, 894, 895, 920, 919
524, 570, 571, 596, 595, 895, 896, 921, 920
525, 571, 572, 597, 596, 896, 897, 922, 921
526, 572, 573, 598, 597, 897, 898, 923, 922
527, 573, 574, 599, 598, 898, 899, 924, 923
528, 574, 575, 600, 599, 899, 900, 925, 924
529, 576, 577, 602, 601, 901, 902, 927, 926
530, 577, 578, 603, 602, 902, 903, 928, 927
531, 578, 579, 604, 603, 903, 904, 929, 928
532, 579, 580, 605, 604, 904, 905, 930, 929
533, 580, 581, 606, 605, 905, 906, 931, 930
534, 581, 582, 607, 606, 906, 907, 932, 931
535, 582, 583, 608, 607, 907, 908, 933, 932
536, 583, 584, 609, 608, 908, 909, 934, 933
537, 584, 585, 610, 609, 909, 910, 935, 934
538, 585, 586, 611, 610, 910, 911, 936, 935
539, 586, 587, 612, 611, 911, 912, 937, 936
540, 587, 588, 613, 612, 912, 913, 938, 937
541, 588, 589, 614, 613, 913, 914, 939, 938
542, 589, 590, 615, 614, 914, 915, 940, 939
543, 590, 591, 616, 615, 915, 916, 941, 940
544, 591, 592, 617, 616, 916, 917, 942, 941
545, 592, 593, 618, 617, 917, 918, 943, 942
546, 593, 594, 619, 618, 918, 919, 944, 943
547, 594, 595, 620, 619, 919, 920, 945, 944
548, 595, 596, 621, 620, 920, 921, 946, 945
549, 596, 597, 622, 621, 921, 922, 947, 946
550, 597, 598, 623, 622, 922, 923, 948, 947
551, 598, 599, 624, 623, 923, 924, 949, 948
552, 599, 600, 625, 624, 924, 925, 950, 949
553, 601, 602, 627, 626, 926, 927, 952, 951
554, 602, 603, 628, 627, 927, 928, 953, 952
555, 603, 604, 629, 628, 928, 929, 954, 953
556, 604, 605, 630, 629, 929, 930, 955, 954
557, 605, 606, 631, 630, 930, 931, 956, 955
558, 606, 607, 632, 631, 931, 932, 957, 956
559, 607, 608, 633, 632, 932, 933, 958, 957
560, 608, 609, 634, 633, 933, 934, 959, 958
561, 609, 610, 635, 634, 934, 935, 960, 959
562, 610, 611, 636, 635, 935, 936, 961, 960
563, 611, 612, 637, 636, 936, 937, 962, 961
564, 612, 613, 638, 637, 937, 938, 963, 962
565, 613, 614, 639, 638, 938, 939, 964, 963
566, 614, 615, 640, 639, 939, 940, 965, 964
567, 615, 616, 641, 640, 940, 941, 966, 965
568, 616, 617, 642, 641, 941, 942, 967, 966
569, 617, 618, 643, 642, 942, 943, 968, 967
570, 618, 619, 644, 643, 943, 944, 969, 968
571, 619, 620, 645, 644, 944, 945, 970, 969
572, 620, 621, 646, 645, 945, 946, 971, 970
573, 621, 622, 647, 646, 946, 947, 972, 971
574, 622, 623, 648, 647, 947, 948, 973, 972
575, 623, 624, 649, 648, 948, 949, 974, 973
576, 624, 625, 650, 649, 949, 950, 975, 974
577, 651, 652, 677, 676, 976, 977, 1002, 1001
578, 652, 653, 678, 677, 977, 978, 1003, 1002
579, 653, 654, 679, 678, 978, 979, 1004, 1003
580, 654, 655, 680, 679, 979, 980, 1005, 1004
581, 655, 656, 681, 680, 980, 981, 1006, 1005
582, 656, 657, 682, 681, 981, 982, 1007, 1006
583, 657, 658, 683, 682, 982, 983, 1008, 1007
584, 658, 659, 684, 683, 983, 984, 1009, 1008
585, 659, 660, 685, 684, 984, 985, 1010, 1009
586, 660, 661, 686, 685, 985, 986, 1011, 1010
587, 661, 662, 687, 686, 986, 987, 1012, 1011
588, 662, 663, 688, 687, 987, 988, 1013, 1012
589, 663, 664, 689, 688, 988, 989, 1014, 1013
590, 664, 665, 690, 689, 989, 990, 1015, 1014
591, 665, 666, 691, 690, 990, 991, 1016, 1015
592, 666, 667, 692, 691, 991, 992, 1017, 1016
593, 667, 668, 693, 692, 992, 993, 1018, 1017
594, 668, 669, 694, 693, 993, 994, 1019, 1018
595, 669, 670, 695, 694, 994, 995, 1020, 1019
596, 670, 671, 696, 695, 995, 996, 1021, 1020
597, 671, 672, 697, 696, 996, 997, 1022, 1021
598, 672, 673, 698, 697, 997, 998, 1023, 1022
599, 673, 674, 699, 698, 998, 999, 1024, 1023
600, 674, 675, 700, 699, 999, 1000, 1025, 1024
601, 676, 677, 702, 701, 1001, 1002, 1027, 1026
602, 677, 678, 703, 702, 1002, 1003, 1028, 1027
603, 678, 679, 704, 703, 1003, 1004, 1029, 1028
604, 679, 680, 705, 704, 1004, 1005, 1030, 1029
605, 680, 681, 706, 705, 1005, 1006, 1031, 1030
606, 681, 682, 707, 706, 1006, 1007, 1032, 1031
607, 682, 683, 708, 707, 1007, 1008, 1033, 1032
608, 683, 684, 709, 708, 1008, 1009, 1034, 1033
609, 684, 685, 710, 709, 1009, 1010, 1035, 1034
610, 685, 686, 711, 710, 1010, 1011, 1036, 1035
611, 686, 687, 712, 711, 1011, 1012, 1037, 1036
612, 687, 688, 713, 712, 1012, 1013, 1038, 1037
613, 688, 689, 714, 713, 1013, 1014, 1039, 1038
614, 689, 690, 715, 714, 1014, 1015, 1040, 1039
615, 690, 691, 716, 715, 1015, 1016, 1041, 1040
616, 691, 692, 717, 716, 1016, 1017, 1042, 1041
617, 692, 693, 718, 717, 1017, 1018, 1043, 1042
618, 693, 694, 719, 718, 1018, 1019, 1044, 1043
619, 694, 695, 720, 719, 1019, 1020, 1045, 1044
620, 695, 696, 721, 720, 1020, 1021, 1046, 1045
621, 696, 697, 722, 721, 1021, 1022, 1047, 1046
622, 697, 698, 723, 722, 1022, 1023, 1048, 1047
623, 698, 699, 724, 723, 1023, 1024, 1049, 1048
624, 699, 700, 725, 724, 1024, 1025, 1050, 1049
625, 701, 702, 727, 726, 1026, 1027, 1052, 1051
626, 702, 703, 728, 727, 1027, 1028, 1053, 1052
627, 703, 704, 729, 728, 1028, 1029, 1054, 1053
628, 704, 705, 730, 729, 1029, 1030, 1055, 1054
629, 705, 706, 731, 730, 1030, 1031, 1056, 1055
630, 706, 707, 732, 731, 1031, 1032, 1057, 1056
631, 707, 708, 733, 732, 1032, 1033, 1058, 1057
632, 708, 709, 734, 733, 1033, 1034, 1059, 1058
633, 709, 710, 735, 734, 1034, 1035, 1060, 1059
634, 710, 711, 736, 735, 1035, 1036, 1061, 1060
635, 711, 712, 737, 736, 1036, 1037, 1062, 1061
636, 712, 713, 738, 737, 1037, 1038, 1063, 1062
637, 713, 714, 739, 738, 1038, 1039, 1064, 1063
638, 714, 715, 740, 739, 1039, 1040, 1065, 1064
639, 715, 716, 741, 740, 1040, 1041, 1066, 1065
640, 716, 717, 742, 741, 1041, 1042, 1067, 1066
641, 717, 718, 743, 742, 1042, 1043, 1068, 1067
642, 718, 719, 744, 743, 1043, 1044, 1069, 1068
643, 719, 720, 745, 744, 1044, 1045, 1070, 1069
644, 720, 721, 746, 745, 1045, 1046, 1071, 1070
645, 721, 722, 747, 746, 1046, 1047, 1072, 1071
646, 722, 723, 748, 747, 1047, 1048, 1073, 1072
647, 723, 724, 749, 748, 1048, 1049, 1074, 1073
648, 724, 725, 750, 749, 1049, 1050, 1075, 1074
649, 726, 727, 752, 751, 1051, 1052, 1077, 1076
650, 727, 728, 753, 752, 1052, 1053, 1078, 1077
651, 728, 729, 754, 753, 1053, 1054, 1079, 1078
652, 729, 730, 755, 754, 1054, 1055, 1080, 1079
653, 730, 731, 756, 755, 1055, 1056, 1081, 1080
654, 731, 732, 757, 756, 1056, 1057, 1082, 1081
655, 732, 733, 758, 757, 1057, 1058, 1083, 1082
656, 733, 734, 759, 758, 1058, 1059, 1084, 1083
657, 734, 735, 760, 759, 1059, 1060, 1085, 1084
658, 735, 736, 761, 760, 1060, 1061, 1086, 1085
659, 736, 737, 762, 761, 1061, 1062, 1087, 1086
660, 737, 738, 763, 762, 1062, 1063, 1088, 1087
661, 738, 739, 764, 763, 1063, 1064, 1089, 1088
662, 739, 740, 765, 764, 1064, 1065, 1090, 1089
663, 740, 741, 766, 765, 1065, 1066, 1091, 1090
664, 741, 742, 767, 766, 1066, 1067, 1092, 1091
665, 742, 743, 768, 767, 1067, 1068, 1093, 1092
666, 743, 744, 769, 768, 1068, 1069, 1094, 1093
667, 744, 745, 770, 769, 1069, 1070, 1095, 1094
668, 745, 746, 771, 770, 1070, 1071, 1096, 1095
669, 746, 747, 772, 771, 1071, 1072, 1097, 1096
670, 747, 748, 773, 772, 1072, 1073, 1098, 1097
671, 748, 749, 774, 773, 1073, 1074, 1099, 1098
672, 749, 750, 775, 774, 1074, 1075, 1100, 1099
673, 751, 752, 777, 776, 1076, 1077, 1102, 1101
674, 752, 753, 778, 777, 1077, 1078, 1103, 1102
675, 753, 754, 779, 778, 1078, 1079, 1104, 1103
676, 754, 755, 780, 779, 1079, 1080, 1105, 1104
677, 755, 756, 781, 780, 1080, 1081, 1106, 1105
678, 756, 757, 782, 781, 1081, 1082, 1107, 1106
679, 757, 758, 783, 782, 1082, 1083, 1108, 1107
680, 758, 759, 784, 783, 1083, 1084, 1109, 1108
681, 759, 760, 785, 784, 1084, 1085, 1110, 1109
682, 760, 761, 786, 785, 1085, 1086, 1111, 1110
683, 761, 762, 787, 786, 1086, 1087, 1112, 1111
684, 762, 763, 788, 787, 1087, 1088, 1113, 1112
685, 763, 764, 789, 788, 1088, 1089, 1114, 1113
686, 764, 765, 790, 789, 1089, 1090, 1115, 1114
687, 765, 766, 791, 790, 1090, 1091, 1116, 1115
688, 766, 767, 792, 791, 1091, 1092, 1117, 1116
689, 767, 768, 793, 792, 1092, 1093, 1118, 1117
690, 768, 769, 794, 793, 1093, 1094, 1119, 1118
691, 769, 770, 795, 794, 1094, 1095, 1120, 1119
692, 770, 771, 796, 795, 1095, 1096, 1121, 1120
693, 771, 772, 797, 796, 1096, 1097, 1122, 1121
694, 772, 773, 798, 797, 1097, 1098, 1123, 1122
695, 773, 774, 799, 798, 1098, 1099, 1124, 1123
696, 774, 775, 800, 799, 1099, 1100, 1125, 1124
697, 776, 777, 802, 801, 1101, 1102, 1127, 1126
698, 777, 778, 803, 802, 1102, 1103, 1128, 1127
699, 778, 779, 804, 803, 1103, 1104, 1129, 1128
700, 779, 780, 805, 804, 1104, 1105, 1130, 1129
701, 780, 781, 806, 805, 1105, 1106, 1131, 1130
702, 781, 782, 807, 806, 1106, 1107, 1132, 1131
703, 782, 783, 808, 807, 1107, 1108, 1133, 1132
704, 783, 784, 809, 808, 1108, 1109, 1134, 1133
705, 784, 785, 810, 809, 1109, 1110, 1135, 1134
706, 785, 786, 811, 810, 1110, 1111, 1136, 1135
707, 786, 787, 812, 811, 1111, 1112, 1137, 1136
708, 787, 788, 813, 812, 1112, 1113, 1138, 1137
709, 788, 789, 814, 813, 1113, 1114, 1139, 1138
710, 789, 790, 815, 814, 1114, 1115, 1140, 1139
711, 790, 791, 816, 815, 1115, 1116, 1141, 1140
712, 791, 792, 817, 816, 1116, 1117, 1142, 1141
713, 792, 793, 818, 817, 1117, 1118, 1143, 1142
714, 793, 794, 819, 818, 1118, 1119, 1144, 1143
715, 794, 795, 820, 819, 1119, 1120, 1145, 1144
716, 795, 796, 821, 820, 1120, 1121, 1146, 1145
717, 796, 797, 822, 821, 1121, 1122, 1147, 1146
718, 797, 798, 823, 822, 1122, 1123, 1148, 1147
719, 798, 799, 824, 823, 1123, 1124, 1149, 1148
720, 799, 800, 825, 824, 1124, 1125, 1150, 1149
721, 801, 802, 827, 826, 1126, 1127, 1152, 1151
722, 802, 803, 828, 827, 1127, 1128, 1153, 1152
723, 803, 804, 829, 828, 1128, 1129, 1154, 1153
724, 804, 805, 830, 829, 1129, 1130, 1155, 1154
725, 805, 806, 831, 830, 1130, 1131, 1156, 1155
726, 806, 807, 832, 831, 1131, 1132, 1157, 1156
727, 807, 808, 833, 832, 1132, 1133, 1158, 1157
728, 808, 809, 834, 833, 1133, 1134, 1159, 1158
729, 809, 810, 835, 834, 1134, 1135, 1160, 1159
730, 810, 811, 836, 835, 1135, 1136, 1161, 1160
731, 811, 812, 837, 836, 1136, 1137, 1162, 1161
732, 812, 813, 838, 837, 1137, 1138, 1163, 1162
733, 813, 814, 839, 838, 1138, 1139, 1164, 1163
734, 814, 815, 840, 839, 1139, 1140, 1165, 1164
735, 815, 816, 841, 840, 1140, 1141, 1166, 1165
736, 816, 817, 842, 841, 1141, 1142, 1167, 1166
737, 817, 818, 843, 842, 1142, 1143, 1168, 1167
738, 818, 819, 844, 843, 1143, 1144, 1169, 1168
739, 819, 820, 845, 844, 1144, 1145, 1170, 1169
740, 820, 821, 846, 845, 1145, 1146, 1171, 1170
741, 821, 822, 847, 846, 1146, 1147, 1172, 1171
742, 822, 823, 848, 847, 1147, 1148, 1173, 1172
743, 823, 824, 849, 848, 1148, 1149, 1174, 1173
744, 824, 825, 850, 849, 1149, 1150, 1175, 1174
745, 826, 827, 852, 851, 1151, 1152, 1177, 1176
746, 827, 828, 853, 852, 1152, 1153, 1178, 1177
747, 828, 829, 854, 853, 1153, 1154, 1179, 1178
748, 829, 830, 855, 854, 1154, 1155, 1180, 1179
749, 830, 831, 856, 855, 1155, 1156, 1181, 1180
750, 831, 832, 857, 856, 1156, 1157, 1182, 1181
751, 832, 833, 858, 857, 1157, 1158, 1183, 1182
752, 833, 834, 859, 858, 1158, 1159, 1184, 1183
753, 834, 835, 860, 859, 1159, 1160, 1185, 1184
754, 835, 836, 861, 860, 1160, 1161, 1186, 1185
755, 836, 837, 862, 861, 1161, 1162, 1187, 1186
756, 837, 838, 863, 862, 1162, 1163, 1188, 1187
757, 838, 839, 864, 863, 1163, 1164, 1189, 1188
758, 839, 840, 865, 864, 1164, 1165, 1190, 1189
759, 840, 841, 866, 865, 1165, 1166, 1191, 1190
760, 841, 842, 867, 866, 1166, 1167, 1192, 1191
761, 842, 843, 868, 867, 1167, 1168, 1193, 1192
762, 843, 844, 869, 868, 1168, 1169, 1194, 1193
763, 844, 845, 870, 869, 1169, 1170, 1195, 1194
764, 845, 846, 871, 870, 1170, 1171, 1196, 1195
765, 846, 847, 872, 871, 1171, 1172, 1197, 1196
766, 847, 848, 873, 872, 1172, 1173, 1198, 1197
767, 848, 849, 874, 873, 1173, 1174, 1199, 1198
768, 849, 850, 875, 874, 1174, 1175, 1200, 1199
769, 851, 852, 877, 876, 1176, 1177, 1202, 1201
770, 852, 853, 878, 877, 1177, 1178, 1203, 1202
771, 853, 854, 879, 878, 1178, 1179, 1204, 1203
772, 854, 855, 880, 879, 1179, 1180, 1205, 1204
773, 855, 856, 881, 880, 1180, 1181, 1206, 1205
774, 856, 857, 882, 881, 1181, 1182, 1207, 1206
775, 857, 858, 883, 882, 1182, 1183, 1208, 1207
776, 858, 859, 884, 883, 1183, 1184, 1209, 1208
777, 859, 860, 885, 884, 1184, 1185, 1210, 1209
778, 860, 861, 886, 885, 1185, 1186, 1211, 1210
779, 861, 862, 887, 886, 1186, 1187, 1212, 1211
780, 862, 863, 888, 887, 1187, 1188, 1213, 1212
781, 863, 864, 889, 888, 1188, 1189, 1214, 1213
782, 864, 865, 890, 889, 1189, 1190, 1215, 1214
783, 865, 866, 891, 890, 1190, 1191, 1216, 1215
784, 866, 867, 892, 891, 1191, 1192, 1217, 1216
785, 867, 868, 893, 892, 1192, 1193, 1218, 1217
786, 868, 869, 894, 893, 1193, 1194, 1219, 1218
787, 869, 870, 895, 894, 1194, 1195, 1220, 1219
788, 870, 871, 896, 895, 1195, 1196, 1221, 1220
789, 871, 872, 897, 896, 1196, 1197, 1222, 1221
790, 872, 873, 898, 897, 1197, 1198, 1223, 1222
791, 873, 874, 899, 898, 1198, 1199, 1224, 1223
792, 874, 875, 900, 899, 1199, 1200, 1225, 1224
793, 876, 877, 902, 901, 1201, 1202, 1227, 1226
794, 877, 878, 903, 902, 1202, 1203, 1228, 1227
795, 878, 879, 904, 903, 1203, 1204, 1229, 1228
796, 879, 880, 905, 904, 1204, 1205, 1230, 1229
797, 880, 881, 906, 905, 1205, 1206, 1231, 1230
798, 881, 882, 907, 906, 1206, 1207, 1232, 1231
799, 882, 883, 908, 907, 1207, 1208, 1233, 1232
800, 883, 884, 909, 908, 1208, 1209, 1234, 1233
801, 884, 885, 910, 909, 1209, 1210, 1235, 1234
802, 885, 886, 911, 910, 1210, 1211, 1236, 1235
803, 886, 887, 912, 911, 1211, 1212, 1237, 1236
804, 887, 888, 913, 912, 1212, 1213, 1238, 1237
805, 888, 889, 914, 913, 1213, 1214, 1239, 1238
806, 889, 890, 915, 914, 1214, 1215, 1240, 1239
807, 890, 891, 916, 915, 1215, 1216, 1241, 1240
808, 891, 892, 917, 916, 1216, 1217, 1242, 1241
809, 892, 893, 918, 917, 1217, 1218, 1243, 1242
810, 893, 894, 919, 918, 1218, 1219, 1244, 1243
811, 894, 895, 920, 919, 1219, 1220, 1245, 1244
812, 895, 896, 921, 920, 1220, 1221, 1246, 1245
813, 896, 897, 922, 921, 1221, 1222, 1247, 1246
814, 897, 898, 923, 922, 1222, 1223, 1248, 1247
815, 898, 899, 924, 923, 1223, 1224, 1249, 1248
816, 899, 900, 925, 924, 1224, 1225, 1250, 1249
817, 901, 902, 927, 926, 1226, 1227, 1252, 1251
818, 902, 903, 928, 927, 1227, 1228, 1253, 1252
819, 903, 904, 929, 928, 1228, 1229, 1254, 1253
820, 904, 905, 930, 929, 1229, 1230, 1255, 1254
821, 905, 906, 931, 930, 1230, 1231, 1256, 1255
822, 906, 907, 932, 931, 1231, 1232, 1257, 1256
823, 907, 908, 933, 932, 1232, 1233, 1258, 1257
824, 908, 909, 934, 933, 1233, 1234, 1259, 1258
825, 909, 910, 935, 934, 1234, 1235, 1260, 1259
826, 910, 911, 936, 935, 1235, 1236, 1261, 1260
827, 911, 912, 937, 936, 1236, 1237, 1262, 1261
828, 912, 913, 938, 937, 1237, 1238, 1263, 1262
829, 913, 914, 939, 938, 1238, 1239, 1264, 1263
830, 914, 915, 940, 939, 1239, 1240, 1265, 1264
831, 915, 916, 941, 940, 1240, 1241, 1266, 1265
832, 916, 917, 942, 941, 1241, 1242, 1267, 1266
833, 917, 918, 943, 942, 1242, 1243, 1268, 1267
834, 918, 919, 944, 943, 1243, 1244, 1269, 1268
835, 919, 920, 945, 944, 1244, 1245, 1270, 1269
836, 920, 921, 946, 945, 1245, 1246, 1271, 1270
837, 921, 922, 947, 946, 1246, 1247, 1272, 1271
838, 922, 923, 948, 947, 1247, 1248, 1273, 1272
839, 923, 924, 949, 948, 1248, 1249, 1274, 1273
840, 924, 925, 950, 949, 1249, 1250, 1275, 1274
841, 926, 927, 952, 951, 1251, 1252, 1277, 1276
842, 927, 928, 953, 952, 1252, 1253, 1278, 1277
843, 928, 929, 954, 953, 1253, 1254, 1279, 1278
844, 929, 930, 955, 954, 1254, 1255, 1280, 1279
845, 930, 931, 956, 955, 1255, 1256, 1281, 1280
846, 931, 932, 957, 956, 1256, 1257, 1282, 1281
847, 932, 933, 958, 957, 1257, 1258, 1283, 1282
848, 933, 934, 959, 958, 1258, 1259, 1284, 1283
849, 934, 935, 960, 959, 1259, 1260, 1285, 1284
850, 935, 936, 961, 960, 1260, 1261, 1286, 1285
851, 936, 937, 962, 961, 1261, 1262, 1287, 1286
852, 937, 938, 963, 962, 1262, 1263, 1288, 1287
853, 938, 939, 964, 963, 1263, 1264, 1289, 1288
854, 939, 940, 965, 964, 1264, 1265, 1290, 1289
855, 940, 941, 966, 965, 1265, 1266, 1291, 1290
856, 941, 942, 967, 966, 1266, 1267, 1292, 1291
857, 942, 943, 968, 967, 1267, 1268, 1293, 1292
858, 943, 944, 969, 968, 1268, 1269, 1294, 1293
859, 944, 945, 970, 969, 1269, 1270, 1295, 1294
860, 945, 946, 971, 970, 1270, 1271, 1296, 1295
861, 946, 947, 972, 971, 1271, 1272, 1297, 1296
862, 947, 948, 973, 972, 1272, 1273, 1298, 1297
863, 948, 949, 974, 973, 1273, 1274, 1299, 1298
864, 949, 950, 975, 974, 1274, 1275, 1300, 1299
865, 976, 977, 1002, 1001, 1301, 1302, 1327, 1326
866, 977, 978, 1003, 1002, 1302, 1303, 1328, 1327
867, 978, 979, 1004, 1003, 1303, 1304, 1329, 1328
868, 979, 980, 1005, 1004, 1304, 1305, 1330, 1329
869, 980, 981, 1006, 1005, 1305, 1306, 1331, 1330
870, 981, 982, 1007, 1006, 1306, 1307, 1332, 1331
871, 982, 983, 1008, 1007, 1307, 1308, 1333, 1332
872, 983, 984, 1009, 1008, 1308, 1309, 1334, 1333
873, 984, 985, 1010, 1009, 1309, 1310, 1335, 1334
874, 985, 986, 1011, 1010, 1310, 1311, 1336, 1335
875, 986, 987, 1012, 1011, 1311, 1312, 1337, 1336
876, 987, 988, 1013, 1012, 1312, 1313, 1338, 1337
877, 988, 989, 1014, 1013, 1313, 1314, 1339, 1338
878, 989, 990, 1015, 1014, 1314, 1315, 1340, 1339
879, 990, 991, 1016, 1015, 1315, 1316, 1341, 1340
880, 991, 992, 1017, 1016, 1316, 1317, 1342, 1341
881, 992, 993, 1018, 1017, 1317, 1318, 1343, 1342
882, 993, 994, 1019, 1018, 1318, 1319, 1344, 1343
883, 994, 995, 1020, 1019, 1319, 1320, 1345, 1344
884, 995, 996, 1021, 1020, 1320, 1321, 1346, 1345
885, 996, 997, 1022, 1021, 1321, 1322, 1347, 1346
886, 997, 998, 1023, 1022, 1322, 1323, 1348, 1347
887, 998, 999, 1024, 1023, 1323, 1324, 1349, 1348
888, 999, 1000, 1025, 1024, 1324, 1325, 1350, 1349
889, 1001, 1002, 1027, 1026, 1326, 1327, 1352, 1351
890, 1002, 1003, 1028, 1027, 1327, 1328, 1353, 1352
891, 1003, 1004, 1029, 1028, 1328, 1329, 1354, 1353
892, 1004, 1005, 1030, 1029, 1329, 1330, 1355, 1354
893, 1005, 1006, 1031, 1030, 1330, 1331, 1356, 1355
894, 1006, 1007, 1032, 1031, 1331, 1332, 1357, 1356
895, 1007, 1008, 1033, 1032, 1332, 1333, 1358, 1357
896, 1008, 1009, 1034, 1033, 1333, 1334, 1359, 1358
897, 1009, 1010, 1035, 1034, 1334, 1335, 1360, 1359
898, 1010, 1011, 1036, 1035, 1335, 1336, 1361, 1360
899, 1011, 1012, 1037, 1036, 1336, 1337, 1362, 1361
900, 1012, 1013, 1038, 1037, 1337, 1338, 1363, 1362
901, 1013, 1014, 1039, 1038, 1338, 1339, 1364, 1363
902, 1014, 1015, 1040, 1039, 1339, 1340, 1365, 1364
903, 1015, 1016, 1041, 1040, 1340, 1341, 1366, 1365
904, 1016, 1017, 1042, 1041, 1341, 1342, 1367, 1366
905, 1017, 1018, 1043, 1042, 1342, 1343, 1368, 1367
906, 1018, 1019, 1044, 1043, 1343, 1344, 1369, 1368
907, 1019, 1020, 1045, 1044, 1344, 1345, 1370, 1369
908, 1020, 1021, 1046, 1045, 1345, 1346, 1371, 1370
909, 1021, 1022, 1047, 1046, 1346, 1347, 1372, 1371
910, 1022, 1023, 1048, 1047, 1347, 1348, 1373, 1372
911, 1023, 1024, 1049, 1048, 1348, 1349, 1374, 1373
912, 1024, 1025, 1050, 1049, 1349, 1350, 1375, 1374
913, 1026, 1027, 1052, 1051, 1351, 1352, 1377, 1376
914, 1027, 1028, 1053, 1052, 1352, 1353, 1378, 1377
915, 1028, 1029, 1054, 1053, 1353, 1354, 1379, 1378
916, 1029, 1030, 1055, 1054, 1354, 1355, 1380, 1379
917, 1030, 1031, 1056, 1055, 1355, 1356, 1381, 1380
918, 1031, 1032, 1057, 1056, 1356, 1357, 1382, 1381
919, 1032, 1033, 1058, 1057, 1357, 1358, 1383, 1382
920, 1033, 1034, 1059, 1058, 1358, 1359, 1384, 1383
921, 1034, 1035, 1060, 1059, 1359, 1360, 1385, 1384
922, 1035, 1036, 1061, 1060, 1360, 1361, 1386, 1385
923, 1036, 1037, 1062, 1061, 1361, 1362, 1387, 1386
924, 1037, 1038, 1063, 1062, 1362, 1363, 1388, 1387
925, 1038, 1039, 1064, 1063, 1363, 1364, 1389, 1388
926, 1039, 1040, 1065, 1064, 1364, 1365, 1390, 1389
927, 1040, 1041, 1066, 1065, 1365, 1366, 1391, 1390
928, 1041, 1042, 1067, 1066, 1366, 1367, 1392, 1391
929, 1042, 1043, 1068, 1067, 1367, 1368, 1393, 1392
930, 1043, 1044, 1069, 1068, 1368, 1369, 1394, 1393
931, 1044, 1045, 1070, 1069, 1369, 1370, 1395, 1394
932, 1045, 1046, 1071, 1070, 1370, 1371, 1396, 1395
933, 1046, 1047, 1072, 1071, 1371, 1372, 1397, 1396
934, 1047, 1048, 1073, 1072, 1372, 1373, 1398, 1397
935, 1048, 1049, 1074, 1073, 1373, 1374, 1399, 1398
936, 1049, 1050, 1075, 1074, 1374, 1375, 1400, 1399
937, 1051, 1052, 1077, 1076, 1376, 1377, 1402, 1401
938, 1052, 1053, 1078, 1077, 1377, 1378, 1403, 1402
939, 1053, 1054, 1079, 1078, 1378, 1379, 1404, 1403
940, 1054, 1055, 1080, 1079, 1379, 1380, 1405, 1404
941, 1055, 1056, 1081, 1080, 1380, 1381, 1406, 1405
942, 1056, 1057, 1082, 1081, 1381, 1382, 1407, 1406
943, 1057, 1058, 1083, 1082, 1382, 1383, 1408, 1407
944, 1058, 1059, 1084, 1083, 1383, 1384, 1409, 1408
945, 1059, 1060, 1085, 1084, 1384, 1385, 1410, 1409
946, 1060, 1061, 1086, 1085, 1385, 1386, 1411, 1410
947, 1061, 1062, 1087, 1086, 1386, 1387, 1412, 1411
948, 1062, 1063, 1088, 1087, 1387, 1388, 1413, 1412
949, 1063, 1064, 1089, 1088, 1388, 1389, 1414, 1413
950, 1064, 1065, 1090, 1089, 1389, 1390, 1415, 1414
951, 1065, 1066, 1091, 1090, 1390, 1391, 1416, 1415
952, 1066, 1067, 1092, 1091, 1391, 1392, 1417, 1416
953, 1067, 1068, 1093, 1092, 1392, 1393, 1418, 1417
954, 1068, 1069, 1094, 1093, 1393, 1394, 1419, 1418
955, 1069, 1070, 1095, 1094, 1394, 1395, 1420, 1419
956, 1070, 1071, 1096, 1095, 1395, 1396, 1421, 1420
957, 1071, 1072, 1097, 1096, 1396, 1397, 1422, 1421
958, 1072, 1073, 1098, 1097, 1397, 1398, 1423, 1422
959, 1073, 1074, 1099, 1098, 1398, 1399, 1424, 1423
960, 1074, 1075, 1100, 1099, 1399, 1400, 1425, 1424
961, 1076, 1077, 1102, 1101, 1401, 1402, 1427, 1426
962, 1077, 1078, 1103, 1102, 1402, 1403, 1428, 1427
963, 1078, 1079, 1104, 1103, 1403, 1404, 1429, 1428
964, 1079, 1080, 1105, 1104, 1404, 1405, 1430, 1429
965, 1080, 1081, 1106, 1105, 1405, 1406, 1431, 1430
966, 1081, 1082, 1107, 1106, 1406, 1407, 1432, 1431
967, 1082, 1083, 1108, 1107, 1407, 1408, 1433, 1432
968, 1083, 1084, 1109, 1108, 1408, 1409, 1434, 1433
969, 1084, 1085, 1110, 1109, 1409, 1410, 1435, 1434
970, 1085, 1086, 1111, 1110, 1410, 1411, 1436, 1435
971, 1086, 1087, 1112, 1111, 1411, 1412, 1437, 1436
972, 1087, 1088, 1113, 1112, 1412, 1413, 1438, 1437
973, 1088, 1089, 1114, 1113, 1413, 1414, 1439, 1438
974, 1089, 1090, 1115, 1114, 1414, 1415, 1440, 1439
975, 1090, 1091, 1116, 1115, 1415, 1416, 1441, 1440
976, 1091, 1092, 1117, 1116, 1416, 1417, 1442, 1441
977, 1092, 1093, 1118, 1117, 1417, 1418, 1443, 1442
978, 1093, 1094, 1119, 1118, 1418, 1419, 1444, 1443
979, 1094, 1095, 1120, 1119, 1419, 1420, 1445, 1444
980, 1095, 1096, 1121, 1120, 1420, 1421, 1446, 1445
981, 1096, 1097, 1122, 1121, 1421, 1422, 1447, 1446
982, 1097, 1098, 1123, 1122, 1422, 1423, 1448, 1447
983, 1098, 1099, 1124, 1123, 1423, 1424, 1449, 1448
984, 1099, 1100, 1125, 1124, 1424, 1425, 1450, 1449
985, 1101, 1102, 1127, 1126, 1426, 1427, 1452, 1451
986, 1102, 1103, 1128, 1127, 1427, 1428, 1453, 1452
987, 1103, 1104, 1129, 1128, 1428, 1429, 1454, 1453
988, 1104, 1105, 1130, 1129, 1429, 1430, 1455, 1454
989, 1105, 1106, 1131, 1130, 1430, 1431, 1456, 1455
990, 1106, 1107, 1132, 1131, 1431, 1432, 1457, 1456
991, 1107, 1108, 1133, 1132, 1432, 1433, 1458, 1457
992, 1108, 1109, 1134, 1133, 1433, 1434, 1459, 1458
993, 1109, 1110, 1135, 1134, 1434, 1435, 1460, 1459
994, 1110, 1111, 1136, 1135, 1435, 1436, 1461, 1460
995, 1111, 1112, 1137, 1136, 1436, 1437, 1462, 1461
996, 1112, 1113, 1138, 1137, 1437, 1438, 1463, 1462
997, 1113, 1114, 1139, 1138, 1438, 1439, 1464, 1463
998, 1114, 1115, 1140, 1139, 1439, 1440, 1465, 1464
999, 1115, 1116, 1141, 1140, 1440, 1441, 1466, 1465
1000, 1116, 1117, 1142, 1141, 1441, 1442, 1467, 1466
1001, 1117, 1118, 1143, 1142, 1442, 1443, 1468, 1467
1002, 1118, 1119, 1144, 1143, 1443, 1444, 1469, 1468
1003, 1119, 1120, 1145, 1144, 1444, 1445, 1470, 1469
1004, 1120, 1121, 1146, 1145, 1445, 1446, 1471, 1470
1005, 1121, 1122, 1147, 1146, 1446, 1447, 1472, 1471
1006, 1122, 1123, 1148, 1147, 1447, 1448, 1473, 1472
1007, 1123, 1124, 1149, 1148, 1448, 1449, 1474, 1473
1008, 1124, 1125, 1150, 1149, 1449, 1450, 1475, 1474
1009, 1126, 1127, 1152, 1151, 1451, 1452, 1477, 1476
1010, 1127, 1128, 1153, 1152, 1452, 1453, 1478, 1477
1011, 1128, 1129, 1154, 1153, 1453, 1454, 1479, 1478
1012, 1129, 1130, 1155, 1154, 1454, 1455, 1480, 1479
1013, 1130, 1131, 1156, 1155, 1455, 1456, 1481, 1480
1014, 1131, 1132, 1157, 1156, 1456, 1457, 1482, 1481
1015, 1132, 1133, 1158, 1157, 1457, 1458, 1483, 1482
1016, 1133, 1134, 1159, 1158, 1458, 1459, 1484, 1483
1017, 1134, 1135, 1160, 1159, 1459, 1460, 1485, 1484
1018, 1135, 1136, 1161, 1160, 1460, 1461, 1486, 1485
1019, 1136, 1137, 1162, 1161, 1461, 1462, 1487, 1486
1020, 1137, 1138, 1163, 1162, 1462, 1463, 1488, 1487
1021, 1138, 1139, 1164, 1163, 1463, 1464, 1489, 1488
1022, 1139, 1140, 1165, 1164, 1464, 1465, 1490, 1489
1023, 1140, 1141, 1166, 1165, 1465, 1466, 1491, 1490
1024, 1141, 1142, 1167, 1166, 1466, 1467, 1492, 1491
1025, 1142, 1143, 1168, 1167, 1467, 1468, 1493, 1492
1026, 1143, 1144, 1169, 1168, 1468, 1469, 1494, 1493
1027, 1144, 1145, 1170, 1169, 1469, 1470, 1495, 1494
1028, 1145, 1146, 1171, 1170, 1470, 1471, 1496, 1495
1029, 1146, 1147, 1172, 1171, 1471, 1472, 1497, 1496
1030, 1147, 1148, 1173, 1172, 1472, 1473, 1498, 1497
1031, 1148, 1149, 1174, 1173, 1473, 1474, 1499, 1498
1032, 1149, 1150, 1175, 1174, 1474, 1475, 1500, 1499
1033, 1151, 1152, 1177, 1176, 1476, 1477, 1502, 1501
1034, 1152, 1153, 1178, 1177, 1477, 1478, 1503, 1502
1035, 1153, 1154, 1179, 1178, 1478, 1479, 1504, 1503
1036, 1154, 1155, 1180, 1179, 1479, 1480, 1505, 1504
1037, 1155, 1156, 1181, 1180, 1480, 1481, 1506, 1505
1038, 1156, 1157, 1182, 1181, 1481, 1482, 1507, 1506
1039, 1157, 1158, 1183, 1182, 1482, 1483, 1508, 1507
1040, 1158, 1159, 1184, 1183, 1483, 1484, 1509, 1508
1041, 1159, 1160, 1185, 1184, 1484, 1485, 1510, 1509
1042, 1160, 1161, 1186, 1185, 1485, 1486, 1511, 1510
1043, 1161, 1162, 1187, 1186, 1486, 1487, 1512, 1511
1044, 1162, 1163, 1188, 1187, 1487, 1488, 1513, 1512
1045, 1163, 1164, 1189, 1188, 1488, 1489, 1514, 1513
1046, 1164, 1165, 1190, 1189, 1489, 1490, 1515, 1514
1047, 1165, 1166, 1191, 1190, 1490, 1491, 1516, 1515
1048, 1166, 1167, 1192, 1191, 1491, 1492, 1517, 1516
1049, 1167, 1168, 1193, 1192, 1492, 1493, 1518, 1517
1050, 1168, 1169, 1194, 1193, 1493, 1494, 1519, 1518
1051, 1169, 1170, 1195, 1194, 1494, 1495, 1520, 1519
1052, 1170, 1171, 1196, 1195, 1495, 1496, 1521, 1520
1053, 1171, 1172, 1197, 1196, 1496, 1497, 1522, 1521
1054, 1172, 1173, 1198, 1197, 1497, 1498, 1523, 1522
1055, 1173, 1174, 1199, 1198, 1498, 1499, 1524, 1523
1056, 1174, 1175, 1200, 1199, 1499, 1500, 1525, 1524
1057, 1176, 1177, 1202, 1201, 1501, 1502, 1527, 1526
1058, 1177, 1178, 1203, 1202, 1502, 1503, 1528, 1527
1059, 1178, 1179, 1204, 1203, 1503, 1504, 1529, 1528
1060, 1179, 1180, 1205, 1204, 1504, 1505, 1530, 1529
1061, 1180, 1181, 1206, 1205, 1505, 1506, 1531, 1530
1062, 1181, 1182, 1207, 1206, 1506, 1507, 1532, 1531
1063, 1182, 1183, 1208, 1207, 1507, 1508, 1533, 1532
1064, 1183, 1184, 1209, 1208, 1508, 1509, 1534, 1533
1065, 1184, 1185, 1210, 1209, 1509, 1510, 1535, 1534
1066, 1185, 1186, 1211, 1210, 1510, 1511, 1536, 1535
1067, 1186, 1187, 1212, 1211, 1511, 1512, 1537, 1536
1068, 1187, 1188, 1213, 1212, 1512, 1513, 1538, 1537
1069, 1188, 1189, 1214, 1213, 1513, 1514, 1539, 1538
1070, 1189, 1190, 1215, 1214, 1514, 1515, 1540, 1539
1071, 1190, 1191, 1216, 1215, 1515, 1516, 1541, 1540
1072, 1191, 1192, 1217, 1216, 1516, 1517, 1542, 1541
1073, 1192, 1193, 1218, 1217, 1517, 1518, 1543, 1542
1074, 1193, 1194, 1219, 1218, 1518, 1519, 1544, 1543
1075, 1194, 1195, 1220, 1219, 1519, 1520, 1545, 1544
1076, 1195, 1196, 1221, 1220, 1520, 1521, 1546, 1545
1077, 1196, 1197, 1222, 1221, 1521, 1522, 1547, 1546
1078, 1197, 1198, 1223, 1222, 1522, 1523, 1548, 1547
1079, 1198, 1199, 1224, 1223, 1523, 1524, 1549, 1548
1080, 1199, 1200, 1225, 1224, 1524, 1525, 1550, 1549
1081, 1201, 1202, 1227, 1226, 1526, 1527, 1552, 1551
1082, 1202, 1203, 1228, 1227, 1527, 1528, 1553, 1552
1083, 1203, 1204, 1229, 1228, 1528, 1529, 1554, 1553
1084, 1204, 1205, 1230, 1229, 1529, 1530, 1555, 1554
1085, 1205, 1206, 1231, 1230, 1530, 1531, 1556, 1555
1086, 1206, 1207, 1232, 1231, 1531, 1532, 1557, 1556
1087, 1207, 1208, 1233, 1232, 1532, 1533, 1558, 1557
1088, 1208, 1209, 1234, 1233, 1533, 1534, 1559, 1558
1089, 1209, 1210, 1235, 1234, 1534, 1535, 1560, 1559
1090, 1210, 1211, 1236, 1235, 1535, 1536, 1561, 1560
1091, 1211, 1212, 1237, 1236, 1536, 1537, 1562, 1561
1092, 1212, 1213, 1238, 1237, 1537, 1538, 1563, 1562
1093, 1213, 1214, 1239, 1238, 1538, 1539, 1564, 1563
1094, 1214, 1215, 1240, 1239, 1539, 1540, 1565, 1564
1095, 1215, 1216, 1241, 1240, 1540, 1541, 1566, 1565
1096, 1216, 1217, 1242, 1241, 1541, 1542, 1567, 1566
1097, 1217, 1218, 1243, 1242, 1542, 1543, 1568, 1567
1098, 1218, 1219, 1244, 1243, 1543, 1544, 1569, 1568
1099, 1219, 1220, 1245, 1244, 1544, 1545, 1570, 1569
1100, 1220, 1221, 1246, 1245, 1545, 1546, 1571, 1570
1101, 1221, 1222, 1247, 1246, 1546, 1547, 1572, 1571
1102, 1222, 1223, 1248, 1247, 1547, 1548, 1573, 1572
1103, 1223, 1224, 1249, 1248, 1548, 1549, 1574, 1573
1104, 1224, 1225, 1250, 1249, 1549, 1550, 1575, 1574
1105, 1226, 1227, 1252, 1251, 1551, 1552, 1577, 1576
1106, 1227, 1228, 1253, 1252, 1552, 1553, 1578, 1577
1107, 1228, 1229, 1254, 1253, 1553, 1554, 1579, 1578
1108, 1229, 1230, 1255, 1254, 1554, 1555, 1580, 1579
1109, 1230, 1231, 1256, 1255, 1555, 1556, 1581, 1580
1110, 1231, 1232, 1257, 1256, 1556, 1557, 1582, 1581
1111, 1232, 1233, 1258, 1257, 1557, 1558, 1583, 1582
1112, 1233, 1234, 1259, 1258, 1558, 1559, 1584, 1583
1113, 1234, 1235, 1260, 1259, 1559, 1560, 1585, 1584
1114, 1235, 1236, 1261, 1260, 1560, 1561, 1586, 1585
1115, 1236, 1237, 1262, 1261, 1561, 1562, 1587, 1586
1116, 1237, 1238, 1263, 1262, 1562, 1563, 1588, 1587
1117, 1238, 1239, 1264, 1263, 1563, 1564, 1589, 1588
1118, 1239, 1240, 1265, 1264, 1564, 1565, 1590, 1589
1119, 1240, 1241, 1266, 1265, 1565, 1566, 1591, 1590
1120, 1241, 1242, 1267, 1266, 1566, 1567, 1592, 1591
1121, 1242, 1243, 1268, 1267, 1567, 1568, 1593, 1592
1122, 1243, 1244, 1269, 1268, 1568, 1569, 1594, 1593
1123, 1244, 1245, 1270, 1269, 1569, 1570, 1595, 1594
1124, 1245, 1246, 1271, 1270, 1570, 1571, 1596, 1595
1125, 1246, 1247, 1272, 1271, 1571, 1572, 1597, 1596
1126, 1247, 1248, 1273, 1272, 1572, 1573, 1598, 1597
1127, 1248, 1249, 1274, 1273, 1573, 1574, 1599, 1598
1128, 1249, 1250, 1275, 1274, 1574, 1575, 1600, 1599
1129, 1251, 1252, 1277, 1276, 1576, 1577, 1602, 1601
1130, 1252, 1253, 1278, 1277, 1577, 1578, 1603, 1602
1131, 1253, 1254, 1279, 1278, 1578, 1579, 1604, 1603
1132, 1254, 1255, 1280, 1279, 1579, 1580, 1605, 1604
1133, 1255, 1256, 1281, 1280, 1580, 1581, 1606, 1605
1134, 1256, 1257, 1282, 1281, 1581, 1582, 1607, 1606
1135, 1257, 1258, 1283, 1282, 1582, 1583, 1608, 1607
1136, 1258, 1259, 1284, 1283, 1583, 1584, 1609, 1608
1137, 1259, 1260, 1285, 1284, 1584, 1585, 1610, 1609
1138, 1260, 1261, 1286, 1285, 1585, 1586, 1611, 1610
1139, 1261, 1262, 1287, 1286, 1586, 1587, 1612, 1611
1140, 1262, 1263, 1288, 1287, 1587, 1588, 1613, 1612
1141, 1263, 1264, 1289, 1288, 1588, 1589, 1614, 1613
1142, 1264, 1265, 1290, 1289, 1589, 1590, 1615, 1614
1143, 1265, 1266, 1291, 1290, 1590, 1591, 1616, 1615
1144, 1266, 1267, 1292, 1291, 1591, 1592, 1617, 1616
1145, 1267, 1268, 1293, 1292, 1592, 1593, 1618, 1617
1146, 1268, 1269, 1294, 1293, 1593, 1594, 1619, 1618
1147, 1269, 1270, 1295, 1294, 1594, 1595, 1620, 1619
1148, 1270, 1271, 1296, 1295, 1595, 1596, 1621, 1620
1149, 1271, 1272, 1297, 1296, 1596, 1597, 1622, 1621
1150, 1272, 1273, 1298, 1297, 1597, 1598, 1623, 1622
1151, 1273, 1274, 1299, 1298, 1598, 1599, 1624, 1623
1152, 1274, 1275, 1300, 1299, 1599, 1600, 1625, 1624
1153, 1301, 1302, 1327, 1326, 1626, 1627, 1652, 1651
1154, 1302, 1303, 1328, 1327, 1627, 1628, 1653, 1652
1155, 1303, 1304, 1329, 1328, 1628, 1629, 1654, 1653
1156, 1304, 1305, 1330, 1329, 1629, 1630, 1655, 1654
1157, 1305, 1306, 1331, 1330, 1630, 1631, 1656, 1655
1158, 1306, 1307, 1332, 1331, 1631, 1632, 1657, 1656
1159, 1307, 1308, 1333, 1332, 1632, 1633, 1658, 1657
1160, 1308, 1309, 1334, 1333, 1633, 1634, 1659, 1658
1161, 1309, 1310, 1335, 1334, 1634, 1635, 1660, 1659
1162, 1310, 1311, 1336, 1335, 1635, 1636, 1661, 1660
1163, 1311, 1312, 1337, 1336, 1636, 1637, 1662, 1661
1164, 1312, 1313, 1338, 1337, 1637, 1638, 1663, 1662
1165, 1313, 1314, 1339, 1338, 1638, 1639, 1664, 1663
1166, 1314, 1315, 1340, 1339, 1639, 1640, 1665, 1664
1167, 1315, 1316, 1341, 1340, 1640, 1641, 1666, 1665
1168, 1316, 1317, 1342, 1341, 1641, 1642, 1667, 1666
1169, 1317, 1318, 1343, 1342, 1642, 1643, 1668, 1667
1170, 1318, 1319, 1344, 1343, 1643, 1644, 1669, 1668
1171, 1319, 1320, 1345, 1344, 1644, 1645, 1670, 1669
1172, 1320, 1321, 1346, 1345, 1645, 1646, 1671, 1670
1173, 1321, 1322, 1347, 1346, 1646, 1647, 1672, 1671
1174, 1322, 1323, 1348, 1347, 1647, 1648, 1673, 1672
1175, 1323, 1324, 1349, 1348, 1648, 1649, 1674, 1673
1176, 1324, 1325, 1350, 1349, 1649, 1650, 1675, 1674
1177, 1326, 1327, 1352, 1351, 1651, 1652, 1677, 1676
1178, 1327, 1328, 1353, 1352, 1652, 1653, 1678, 1677
1179, 1328, 1329, 1354, 1353, 1653, 1654, 1679, 1678
1180, 1329, 1330, 1355, 1354, 1654, 1655, 1680, 1679
1181, 1330, 1331, 1356, 1355, 1655, 1656, 1681, 1680
1182, 1331, 1332, 1357, 1356, 1656, 1657, 1682, 1681
1183, 1332, 1333, 1358, 1357, 1657, 1658, 1683, 1682
1184, 1333, 1334, 1359, 1358, 1658, 1659, 1684, 1683
1185, 1334, 1335, 1360, 1359, 1659, 1660, 1685, 1684
1186, 1335, 1336, 1361, 1360, 1660, 1661, 1686, 1685
1187, 1336, 1337, 1362, 1361, 1661, 1662, 1687, 1686
1188, 1337, 1338, 1363, 1362, 1662, 1663, 1688, 1687
1189, 1338, 1339, 1364, 1363, 1663, 1664, 1689, 1688
1190, 1339, 1340, 1365, 1364, 1664, 1665, 1690, 1689
1191, 1340, 1341, 1366, 1365, 1665, 1666, 1691, 1690
1192, 1341, 1342, 1367, 1366, 1666, 1667, 1692, 1691
1193, 1342, 1343, 1368, 1367, 1667, 1668, 1693, 1692
1194, 1343, 1344, 1369, 1368, 1668, 1669, 1694, 1693
1195, 1344, 1345, 1370, 1369, 1669, 1670, 1695, 1694
1196, 1345, 1346, 1371, 1370, 1670, 1671, 1696, 1695
1197, 1346, 1347, 1372, 1371, 1671, 1672, 1697, 1696
1198, 1347, 1348, 1373, 1372, 1672, 1673, 1698, 1697
1199, 1348, 1349, 1374, 1373, 1673, 1674, 1699, 1698
1200, 1349, 1350, 1375, 1374, 1674, 1675, 1700, 1699
1201, 1351, 1352, 1377, 1376, 1676, 1677, 1702, 1701
1202, 1352, 1353, 1378, 1377, 1677, 1678, 1703, 1702
1203, 1353, 1354, 1379, 1378, 1678, 1679, 1704, 1703
1204, 1354, 1355, 1380, 1379, 1679, 1680, 1705, 1704
1205, 1355, 1356, 1381, 1380, 1680, 1681, 1706, 1705
1206, 1356, 1357, 1382, 1381, 1681, 1682, 1707, 1706
1207, 1357, 1358, 1383, 1382, 1682, 1683, 1708, 1707
1208, 1358, 1359, 1384, 1383, 1683, 1684, 1709, 1708
1209, 1359, 1360, 1385, 1384, 1684, 1685, 1710, 1709
1210, 1360, 1361, 1386, 1385, 1685, 1686, 1711, 1710
1211, 1361, 1362, 1387, 1386, 1686, 1687, 1712, 1711
1212, 1362, 1363, 1388, 1387, 1687, 1688, 1713, 1712
1213, 1363, 1364, 1389, 1388, 1688, 1689, 1714, 1713
1214, 1364, 1365, 1390, 1389, 1689, 1690, 1715, 1714
1215, 1365, 1366, 1391, 1390, 1690, 1691, 1716, 1715
1216, 1366, 1367, 1392, 1391, 1691, 1692, 1717, 1716
1217, 1367, 1368, 1393, 1392, 1692, 1693, 1718, 1717
1218, 1368, 1369, 1394, 1393, 1693, 1694, 1719, 1718
1219, 1369, 1370, 1395, 1394, 1694, 1695, 1720, 1719
1220, 1370, 1371, 1396, 1395, 1695, 1696, 1721, 1720
1221, 1371, 1372, 1397, 1396, 1696, 1697, 1722, 1721
1222, 1372, 1373, 1398, 1397, 1697, 1698, 1723, 1722
1223, 1373, 1374, 1399, 1398, 1698, 1699, 1724, 1723
1224, 1374, 1375, 1400, 1399, 1699, 1700, 1725, 1724
1225, 1376, 1377, 1402, 1401, 1701, 1702, 1727, 1726
1226, 1377, 1378, 1403, 1402, 1702, 1703, 1728, 1727
1227, 1378, 1379, 1404, 1403, 1703, 1704, 1729, 1728
1228, 1379, 1380, 1405, 1404, 1704, 1705, 1730, 1729
1229, 1380, 1381, 1406, 1405, 1705, 1706, 1731, 1730
1230, 1381, 1382, 1407, 1406, 1706, 1707, 1732, 1731
1231, 1382, 1383, 1408, 1407, 1707, 1708, 1733, 1732
1232, 1383, 1384, 1409, 1408, 1708, 1709, 1734, 1733
1233, 1384, 1385, 1410, 1409, 1709, 1710, 1735, 1734
1234, 1385, 1386, 1411, 1410, 1710, 1711, 1736, 1735
1235, 1386, 1387, 1412, 1411, 1711, 1712, 1737, 1736
1236, 1387, 1388, 1413, 1412, 1712, 1713, 1738, 1737
1237, 1388, 1389, 1414, 1413, 1713, 1714, 1739, 1738
1238, 1389, 1390, 1415, 1414, 1714, 1715, 1740, 1739
1239, 1390, 1391, 1416, 1415, 1715, 1716, 1741, 1740
1240, 1391, 1392, 1417, 1416, 1716, 1717, 1742, 1741
1241, 1392, 1393, 1418, 1417, 1717, 1718, 1743, 1742
1242, 1393, 1394, 1419, 1418, 1718, 1719, 1744, 1743
1243, 1394, 1395, 1420, 1419, 1719, 1720, 1745, 1744
1244, 1395, 1396, 1421, 1420, 1720, 1721, 1746, 1745
1245, 1396, 1397, 1422, 1421, 1721, 1722, 1747, 1746
1246, 1397, 1398, 1423, 1422, 1722, 1723, 1748, 1747
1247, 1398, 1399, 1424, 1423, 1723, 1724, 1749, 1748
1248, 1399, 1400, 1425, 1424, 1724, 1725, 1750, 1749
1249, 1401, 1402, 1427, 1426, 1726, 1727, 1752, 1751
1250, 1402, 1403, 1428, 1427, 1727, 1728, 1753, 1752
1251, 1403, 1404, 1429, 1428, 1728, 1729, 1754, 1753
1252, 1404, 1405, 1430, 1429, 1729, 1730, 1755, 1754
1253, 1405, 1406, 1431, 1430, 1730, 1731, 1756, 1755
1254, 1406, 1407, 1432, 1431, 1731, 1732, 1757, 1756
1255, 1407, 1408, 1433, 1432, 1732, 1733, 1758, 1757
1256, 1408, 1409, 1434, 1433, 1733, 1734, 1759, 1758
1257, 1409, 1410, 1435, 1434, 1734, 1735, 1760, 1759
1258, 1410, 1411, 1436, 1435, 1735, 1736, 1761, 1760
1259, 1411, 1412, 1437, 1436, 1736, 1737, 1762, 1761
1260, 1412, 1413, 1438, 1437, 1737, 1738, 1763, 1762
1261, 1413, 1414, 1439, 1438, 1738, 1739, 1764, 1763
1262, 1414, 1415, 1440, 1439, 1739, 1740, 1765, 1764
1263, 1415, 1416, 1441, 1440, 1740, 1741, 1766, 1765
1264, 1416, 1417, 1442, 1441, 1741, 1742, 1767, 1766
1265, 1417, 1418, 1443, 1442, 1742, 1743, 1768, 1767
1266, 1418, 1419, 1444, 1443, 1743, 1744, 1769, 1768
1267, 1419, 1420, 1445, 1444, 1744, 1745, 1770, 1769
1268, 1420, 1421, 1446, 1445, 1745, 1746, 1771, 1770
1269, 1421, 1422, 1447, 1446, 1746, 1747, 1772, 1771
1270, 1422, 1423, 1448, 1447, 1747, 1748, 1773, 1772
1271, 1423, 1424, 1449, 1448, 1748, 1749, 1774, 1773
1272, 1424, 1425, 1450, 1449, 1749, 1750, 1775, 1774
1273, 1426, 1427, 1452, 1451, 1751, 1752, 1777, 1776
1274, 1427, 1428, 1453, 1452, 1752, 1753, 1778, 1777
1275, 1428, 1429, 1454, 1453, 1753, 1754, 1779, 1778
1276, 1429, 1430, 1455, 1454, 1754, 1755, 1780, 1779
1277, 1430, 1431, 1456, 1455, 1755, 1756, 1781, 1780
1278, 1431, 1432, 1457, 1456, 1756, 1757, 1782, 1781
1279, 1432, 1433, 1458, 1457, 1757, 1758, 1783, 1782
1280, 1433, 1434, 1459, 1458, 1758, 1759, 1784, 1783
1281, 1434, 1435, 1460, 1459, 1759, 1760, 1785, 1784
1282, 1435, 1436, 1461, 1460, 1760, 1761, 1786, 1785
1283, 1436, 1437, 1462, 1461, 1761, 1762, 1787, 1786
1284, 1437, 1438, 1463, 1462, 1762, 1763, 1788, 1787
1285, 1438, 1439, 1464, 1463, 1763, 1764, 1789, 1788
1286, 1439, 1440, 1465, 1464, 1764, 1765, 1790, 1789
1287, 1440, 1441, 1466, 1465, 1765, 1766, 1791, 1790
1288, 1441, 1442, 1467, 1466, 1766, 1767, 1792, 1791
1289, 1442, 1443, 1468, 1467, 1767, 1768, 1793, 1792
1290, 1443, 1444, 1469, 1468, 1768, 1769, 1794, 1793
1291, 1444, 1445, 1470, 1469, 1769, 1770, 1795, 1794
1292, 1445, 1446, 1471, 1470, 1770, 1771, 1796, 1795
1293, 1446, 1447, 1472, 1471, 1771, 1772, 1797, 1796
1294, 1447, 1448, 1473, 1472, 1772, 1773, 1798, 1797
1295, 1448, 1449, 1474, 1473, 1773, 1774, 1799, 1798
1296, 1449, 1450, 1475, 1474, 1774, 1775, 1800, 1799
1297, 1451, 1452, 1477, 1476, 1776, 1777, 1802, 1801
1298, 1452, 1453, 1478, 1477, 1777, 1778, 1803, 1802
1299, 1453, 1454, 1479, 1478, 1778, 1779, 1804, 1803
1300, 1454, 1455, 1480, 1479, 1779, 1780, 1805, 1804
1301, 1455, 1456, 1481, 1480, 1780, 1781, 1806, 1805
1302, 1456, 1457, 1482, 1481, 1781, 1782, 1807, 1806
1303, 1457, 1458, 1483, 1482, 1782, 1783, 1808, 1807
1304, 1458, 1459, 1484, 1483, 1783, 1784, 1809, 1808
1305, 1459, 1460, 1485, 1484, 1784, 1785, 1810, 1809
1306, 1460, 1461, 1486, 1485, 1785, 1786, 1811, 1810
1307, 1461, 1462, 1487, 1486, 1786, 1787, 1812, 1811
1308, 1462, 1463, 1488, 1487, 1787, 1788, 1813, 1812
1309, 1463, 1464, 1489, 1488, 1788, 1789, 1814, 1813
1310, 1464, 1465, 1490, 1489, 1789, 1790, 1815, 1814
1311, 1465, 1466, 1491, 1490, 1790, 1791, 1816, 1815
1312, 1466, 1467, 1492, 1491, 1791, 1792, 1817, 1816
1313, 1467, 1468, 1493, 1492, 1792, 1793, 1818, 1817
1314, 1468, 1469, 1494, 1493, 1793, 1794, 1819, 1818
1315, 1469, 1470, 1495, 1494, 1794, 1795, 1820, 1819
1316, 1470, 1471, 1496, 1495, 1795, 1796, 1821, 1820
1317, 1471, 1472, 1497, 1496, 1796, 1797, 1822, 1821
1318, 1472, 1473, 1498, 1497, 1797, 1798, 1823, 1822
1319, 1473, 1474, 1499, 1498, 1798, 1799, 1824, 1823
1320, 1474, 1475, 1500, 1499, 1799, 1800, 1825, 1824
1321, 1476, 1477, 1502, 1501, 1801, 1802, 1827, 1826
1322, 1477, 1478, 1503, 1502, 1802, 1803, 1828, 1827
1323, 1478, 1479, 1504, 1503, 1803, 1804, 1829, 1828
1324, 1479, 1480, 1505, 1504, 1804, 1805, 1830, 1829
1325, 1480, 1481, 1506, 1505, 1805, 1806, 1831, 1830
1326, 1481, 1482, 1507, 1506, 1806, 1807, 1832, 1831
1327, 1482, 1483, 1508, 1507, 1807, 1808, 1833, 1832
1328, 1483, 1484, 1509, 1508, 1808, 1809, 1834, 1833
1329, 1484, 1485, 1510, 1509, 1809, 1810, 1835, 1834
1330, 1485, 1486, 1511, 1510, 1810, 1811, 1836, 1835
1331, 1486, 1487, 1512, 1511, 1811, 1812, 1837, 1836
1332, 1487, 1488, 1513, 1512, 1812, 1813, 1838, 1837
1333, 1488, 1489, 1514, 1513, 1813, 1814, 1839, 1838
1334, 1489, 1490, 1515, 1514, 1814, 1815, 1840, 1839
1335, 1490, 1491, 1516, 1515, 1815, 1816, 1841, 1840
1336, 1491, 1492, 1517, 1516, 1816, 1817, 1842, 1841
1337, 1492, 1493, 1518, 1517, 1817, 1818, 1843, 1842
1338, 1493, 1494, 1519, 1518, 1818, 1819, 1844, 1843
1339, 1494, 1495, 1520, 1519, 1819, 1820, 1845, 1844
1340, 1495, 1496, 1521, 1520, 1820, 1821, 1846, 1845
1341, 1496, 1497, 1522, 1521, 1821, 1822, 1847, 1846
1342, 1497, 1498, 1523, 1522, 1822, 1823, 1848, 1847
1343, 1498, 1499, 1524, 1523, 1823, 1824, 1849, 1848
1344, 1499, 1500, 1525, 1524, 1824, 1825, 1850, 1849
1345, 1501, 1502, 1527, 1526, 1826, 1827, 1852, 1851
1346, 1502, 1503, 1528, 1527, 1827, 1828, 1853, 1852
1347, 1503, 1504, 1529, 1528, 1828, 1829, 1854, 1853
1348, 1504, 1505, 1530, 1529, 1829, 1830, 1855, 1854
1349, 1505, 1506, 1531, 1530, 1830, 1831, 1856, 1855
1350, 1506, 1507, 1532, 1531, 1831, 1832, 1857, 1856
1351, 1507, 1508, 1533, 1532, 1832, 1833, 1858, 1857
1352, 1508, 1509, 1534, 1533, 1833, 1834, 1859, 1858
1353, 1509, 1510, 1535, 1534, 1834, 1835, 1860, 1859
1354, 1510, 1511, 1536, 1535, 1835, 1836, 1861, 1860
1355, 1511, 1512, 1537, 1536, 1836, 1837, 1862, 1861
1356, 1512, 1513, 1538, 1537, 1837, 1838, 1863, 1862
1357, 1513, 1514, 1539, 1538, 1838, 1839, 1864, 1863
1358, 1514, 1515, 1540, 1539, 1839, 1840, 1865, 1864
1359, 1515, 1516, 1541, 1540, 1840, 1841, 1866, 1865
1360, 1516, 1517, 1542, 1541, 1841, 1842, 1867, 1866
1361, 1517, 1518, 1543, 1542, 1842, 1843, 1868, 1867
1362, 1518, 1519, 1544, 1543, 1843, 1844, 1869, 1868
1363, 1519, 1520, 1545, 1544, 1844, 1845, 1870, 1869
1364, 1520, 1521, 1546, 1545, 1845, 1846, 1871, 1870
1365, 1521, 1522, 1547, 1546, 1846, 1847, 1872, 1871
1366, 1522, 1523, 1548, 1547, 1847, 1848, 1873, 1872
1367, 1523, 1524, 1549, 1548, 1848, 1849, 1874, 1873
1368, 1524, 1525, 1550, 1549, 1849, 1850, 1875, 1874
1369, 1526, 1527, 1552, 1551, 1851, 1852, 1877, 1876
1370, 1527, 1528, 1553, 1552, 1852, 1853, 1878, 1877
1371, 1528, 1529, 1554, 1553, 1853, 1854, 1879, 1878
1372, 1529, 1530, 1555, 1554, 1854, 1855, 1880, 1879
1373, 1530, 1531, 1556, 1555, 1855, 1856, 1881, 1880
1374, 1531, 1532, 1557, 1556, 1856, 1857, 1882, 1881
1375, 1532, 1533, 1558, 1557, 1857, 1858, 1883, 1882
1376, 1533, 1534, 1559, 1558, 1858, 1859, 1884, 1883
1377, 1534, 1535, 1560, 1559, 1859, 1860, 1885, 1884
1378, 1535, 1536, 1561, 1560, 1860, 1861, 1886, 1885
1379, 1536, 1537, 1562, 1561, 1861, 1862, 1887, 1886
1380, 1537, 1538, 1563, 1562, 1862, 1863, 1888, 1887
1381, 1538, 1539, 1564, 1563, 1863, 1864, 1889, 1888
1382, 1539, 1540, 1565, 1564, 1864, 1865, 1890, 1889
1383, 1540, 1541, 1566, 1565, 1865, 1866, 1891, 1890
1384, 1541, 1542, 1567, 1566, 1866, 1867, 1892, 1891
1385, 1542, 1543, 1568, 1567, 1867, 1868, 1893, 1892
1386, 1543, 1544, 1569, 1568, 1868, 1869, 1894, 1893
1387, 1544, 1545, 1570, 1569, 1869, 1870, 1895, 1894
1388, 1545, 1546, 1571, 1570, 1870, 1871, 1896, 1895
1389, 1546, 1547, 1572, 1571, 1871, 1872, 1897, 1896
1390, 1547, 1548, 1573, 1572, 1872, 1873, 1898, 1897
1391, 1548, 1549, 1574, 1573, 1873, 1874, 1899, 1898
1392, 1549, 1550, 1575, 1574, 1874, 1875, 1900, 1899
1393, 1551, 1552, 1577, 1576, 1876, 1877, 1902, 1901
1394, 1552, 1553, 1578, 1577, 1877, 1878, 1903, 1902
1395, 1553, 1554, 1579, 1578, 1878, 1879, 1904, 1903
1396, 1554, 1555, 1580, 1579, 1879, 1880, 1905, 1904
1397, 1555, 1556, 1581, 1580, 1880, 1881, 1906, 1905
1398, 1556, 1557, 1582, 1581, 1881, 1882, 1907, 1906
1399, 1557, 1558, 1583, 1582, 1882, 1883, 1908, 1907
1400, 1558, 1559, 1584, 1583, 1883, 1884, 1909, 1908
1401, 1559, 1560, 1585, 1584, 1884, 1885, 1910, 1909
1402, 1560, 1561, 1586, 1585, 1885, 1886, 1911, 1910
1403, 1561, 1562, 1587, 1586, 1886, 1887, 1912, 1911
1404, 1562, 1563, 1588, 1587, 1887, 1888, 1913, 1912
1405, 1563, 1564, 1589, 1588, 1888, 1889, 1914, 1913
1406, 1564, 1565, 1590, 1589, 1889, 1890, 1915, 1914
1407, 1565, 1566, 1591, 1590, 1890, 1891, 1916, 1915
1408, 1566, 1567, 1592, 1591, 1891, 1892, 1917, 1916
1409, 1567, 1568, 1593, 1592, 1892, 1893, 1918, 1917
1410, 1568, 1569, 1594, 1593, 1893, 1894, 1919, 1918
1411, 1569, 1570, 1595, 1594, 1894, 1895, 1920, 1919
1412, 1570, 1571, 1596, 1595, 1895, 1896, 1921, 1920
1413, 1571, 1572, 1597, 1596, 1896, 1897, 1922, 1921
1414, 1572, 1573, 1598, 1597, 1897, 1898, 1923, 1922
1415, 1573, 1574, 1599, 1598, 1898, 1899, 1924, 1923
1416, 1574, 1575, 1600, 1599, 1899, 1900, 1925, 1924
1417, 1576, 1577, 1602, 1601, 1901, 1902, 1927, 1926
1418, 1577, 1578, 1603, 1602, 1902, 1903, 1928, 1927
1419, 1578, 1579, 1604, 1603, 1903, 1904, 1929, 1928
1420, 1579, 1580, 1605, 1604, 1904, 1905, 1930, 1929
1421, 1580, 1581, 1606, 1605, 1905, 1906, 1931, 1930
1422, 1581, 1582, 1607, 1606, 1906, 1907, 1932, 1931
1423, 1582, 1583, 1608, 1607, 1907, 1908, 1933, 1932
1424, 1583, 1584, 1609, 1608, 1908, 1909, 1934, 1933
1425, 1584, 1585, 1610, 1609, 1909, 1910, 1935, 1934
1426, 1585, 1586, 1611, 1610, 1910, 1911, 1936, 1935
1427, 1586, 1587, 1612, 1611, 1911, 1912, 1937, 1936
1428, 1587, 1588, 1613, 1612, 1912, 1913, 1938, 1937
1429, 1588, 1589, 1614, 1613, 1913, 1914, 1939, 1938
1430, 1589, 1590, 1615, 1614, 1914, 1915, 1940, 1939
1431, 1590, 1591, 1616, 1615, 1915, 1916, 1941, 1940
1432, 1591, 1592, 1617, 1616, 1916, 1917, 1942, 1941
1433, 1592, 1593, 1618, 1617, 1917, 1918, 1943, 1942
1434, 1593, 1594, 1619, 1618, 1918, 1919, 1944, 1943
1435, 1594, 1595, 1620, 1619, 1919, 1920, 1945, 1944
1436, 1595, 1596, 1621, 1620, 1920, 1921, 1946, 1945
1437, 1596, 1597, 1622, 1621, 1921, 1922, 1947, 1946
1438, 1597, 1598, 1623, 1622, 1922, 1923, 1948, 1947
1439, 1598, 1599, 1624, 1623, 1923, 1924, 1949, 1948
1440, 1599, 1600, 1625, 1624, 1924, 1925, 1950, 1949
1441, 1626, 1627, 1652, 1651, 1951, 1952, 1977, 1976
1442, 1627, 1628, 1653, 1652, 1952, 1953, 1978, 1977
1443, 1628, 1629, 1654, 1653, 1953, 1954, 1979, 1978
1444, 1629, 1630, 1655, 1654, 1954, 1955, 1980, 1979
1445, 1630, 1631, 1656, 1655, 1955, 1956, 1981, 1980
1446, 1631, 1632, 1657, 1656, 1956, 1957, 1982, 1981
1447, 1632, 1633, 1658, 1657, 1957, 1958, 1983, 1982
1448, 1633, 1634, 1659, 1658, 1958, 1959, 1984, 1983
1449, 1634, 1635, 1660, 1659, 1959, 1960, 1985, 1984
1450, 1635, 1636, 1661, 1660, 1960, 1961, 1986, 1985
1451, 1636, 1637, 1662, 1661, 1961, 1962, 1987, 1986
1452, 1637, 1638, 1663, 1662, 1962, 1963, 1988, 1987
1453, 1638, 1639, 1664, 1663, 1963, 1964, 1989, 1988
1454, 1639, 1640, 1665, 1664, 1964, 1965, 1990, 1989
1455, 1640, 1641, 1666, 1665, 1965, 1966, 1991, 1990
1456, 1641, 1642, 1667, 1666, 1966, 1967, 1992, 1991
1457, 1642, 1643, 1668, 1667, 1967, 1968, 1993, 1992
1458, 1643, 1644, 1669, 1668, 1968, 1969, 1994, 1993
1459, 1644, 1645, 1670, 1669, 1969, 1970, 1995, 1994
1460, 1645, 1646, 1671, 1670, 1970, 1971, 1996, 1995
1461, 1646, 1647, 1672, 1671, 1971, 1972, 1997, 1996
1462, 1647, 1648, 1673, 1672, 1972, 1973, 1998, 1997
1463, 1648, 1649, 1674, 1673, 1973, 1974, 1999, 1998
1464, 1649, 1650, 1675, 1674, 1974, 1975, 2000, 1999
1465, 1651, 1652, 1677, 1676, 1976, 1977, 2002, 2001
1466, 1652, 1653, 1678, 1677, 1977, 1978, 2003, 2002
1467, 1653, 1654, 1679, 1678, 1978, 1979, 2004, 2003
1468, 1654, 1655, 1680, 1679, 1979, 1980, 2005, 2004
1469, 1655, 1656, 1681, 1680, 1980, 1981, 2006, 2005
1470, 1656, 1657, 1682, 1681, 1981, 1982, 2007, 2006
1471, 1657, 1658, 1683, 1682, 1982, 1983, 2008, 2007
1472, 1658, 1659, 1684, 1683, 1983, 1984, 2009, 2008
1473, 1659, 1660, 1685, 1684, 1984, 1985, 2010, 2009
1474, 1660, 1661, 1686, 1685, 1985, 1986, 2011, 2010
1475, 1661, 1662, 1687, 1686, 1986, 1987, 2012, 2011
1476, 1662, 1663, 1688, 1687, 1987, 1988, 2013, 2012
1477, 1663, 1664, 1689, 1688, 1988, 1989, 2014, 2013
1478, 1664, 1665, 1690, 1689, 1989, 1990, 2015, 2014
1479, 1665, 1666, 1691, 1690, 1990, 1991, 2016, 2015
1480, 1666, 1667, 1692, 1691, 1991, 1992, 2017, 2016
1481, 1667, 1668, 1693, 1692, 1992, 1993, 2018, 2017
1482, 1668, 1669, 1694, 1693, 1993, 1994, 2019, 2018
1483, 1669, 1670, 1695, 1694, 1994, 1995, 2020, 2019
1484, 1670, 1671, 1696, 1695, 1995, 1996, 2021, 2020
1485, 1671, 1672, 1697, 1696, 1996, 1997, 2022, 2021
1486, 1672, 1673, 1698, 1697, 1997, 1998, 2023, 2022
1487, 1673, 1674, 1699, 1698, 1998, 1999, 2024, 2023
1488, 1674, 1675, 1700, 1699, 1999, 2000, 2025, 2024
1489, 1676, 1677, 1702, 1701, 2001, 2002, 2027, 2026
1490, 1677, 1678, 1703, 1702, 2002, 2003, 2028, 2027
1491, 1678, 1679, 1704, 1703, 2003, 2004, 2029, 2028
1492, 1679, 1680, 1705, 1704, 2004, 2005, 2030, 2029
1493, 1680, 1681, 1706, 1705, 2005, 2006, 2031, 2030
1494, 1681, 1682, 1707, 1706, 2006, 2007, 2032, 2031
1495, 1682, 1683, 1708, 1707, 2007, 2008, 2033, 2032
1496, 1683, 1684, 1709, 1708, 2008, 2009, 2034, 2033
1497, 1684, 1685, 1710, 1709, 2009, 2010, 2035, 2034
1498, 1685, 1686, 1711, 1710, 2010, 2011, 2036, 2035
1499, 1686, 1687, 1712, 1711, 2011, 2012, 2037, 2036
1500, 1687, 1688, 1713, 1712, 2012, 2013, 2038, 2037
1501, 1688, 1689, 1714, 1713, 2013, 2014, 2039, 2038
1502, 1689, 1690, 1715, 1714, 2014, 2015, 2040, 2039
1503, 1690, 1691, 1716, 1715, 2015, 2016, 2041, 2040
1504, 1691, 1692, 1717, 1716, 2016, 2017, 2042, 2041
1505, 1692, 1693, 1718, 1717, 2017, 2018, 2043, 2042
1506, 1693, 1694, 1719, 1718, 2018, 2019, 2044, 2043
1507, 1694, 1695, 1720, 1719, 2019, 2020, 2045, 2044
1508, 1695, 1696, 1721, 1720, 2020, 2021, 2046, 2045
1509, 1696, 1697, 1722, 1721, 2021, 2022, 2047, 2046
1510, 1697, 1698, 1723, 1722, 2022, 2023, 2048, 2047
1511, 1698, 1699, 1724, 1723, 2023, 2024, 2049, 2048
1512, 1699, 1700, 1725, 1724, 2024, 2025, 2050, 2049
1513, 1701, 1702, 1727, 1726, 2026, 2027, 2052, 2051
1514, 1702, 1703, 1728, 1727, 2027, 2028, 2053, 2052
1515, 1703, 1704, 1729, 1728, 2028, 2029, 2054, 2053
1516, 1704, 1705, 1730, 1729, 2029, 2030, 2055, 2054
1517, 1705, 1706, 1731, 1730, 2030, 2031, 2056, 2055
1518, 1706, 1707, 1732, 1731, 2031, 2032, 2057, 2056
1519, 1707, 1708, 1733, 1732, 2032, 2033, 2058, 2057
1520, 1708, 1709, 1734, 1733, 2033, 2034, 2059, 2058
1521, 1709, 1710, 1735, 1734, 2034, 2035, 2060, 2059
1522, 1710, 1711, 1736, 1735, 2035, 2036, 2061, 2060
1523, 1711, 1712, 1737, 1736, 2036, 2037, 2062, 2061
1524, 1712, 1713, 1738, 1737, 2037, 2038, 2063, 2062
1525, 1713, 1714, 1739, 1738, 2038, 2039, 2064, 2063
1526, 1714, 1715, 1740, 1739, 2039, 2040, 2065, 2064
1527, 1715, 1716, 1741, 1740, 2040, 2041, 2066, 2065
1528, 1716, 1717, 1742, 1741, 2041, 2042, 2067, 2066
1529, 1717, 1718, 1743, 1742, 2042, 2043, 2068, 2067
1530, 1718, 1719, 1744, 1743, 2043, 2044, 2069, 2068
1531, 1719, 1720, 1745, 1744, 2044, 2045, 2070, 2069
1532, 1720, 1721, 1746, 1745, 2045, 2046, 2071, 2070
1533, 1721, 1722, 1747, 1746, 2046, 2047, 2072, 2071
1534, 1722, 1723, 1748, 1747, 2047, 2048, 2073, 2072
1535, 1723, 1724, 1749, 1748, 2048, 2049, 2074, 2073
1536, 1724, 1725, 1750, 1749, 2049, 2050, 2075, 2074
1537, 1726, 1727, 1752, 1751, 2051, 2052, 2077, 2076
1538, 1727, 1728, 1753, 1752, 2052, 2053, 2078, 2077
1539, 1728, 1729, 1754, 1753, 2053, 2054, 2079, 2078
1540, 1729, 1730, 1755, 1754, 2054, 2055, 2080, 2079
1541, 1730, 1731, 1756, 1755, 2055, 2056, 2081, 2080
1542, 1731, 1732, 1757, 1756, 2056, 2057, 2082, 2081
1543, 1732, 1733, 1758, 1757, 2057, 2058, 2083, 2082
1544, 1733, 1734, 1759, 1758, 2058, 2059, 2084, 2083
1545, 1734, 1735, 1760, 1759, 2059, 2060, 2085, 2084
1546, 1735, 1736, 1761, 1760, 2060, 2061, 2086, 2085
1547, 1736, 1737, 1762, 1761, 2061, 2062, 2087, 2086
1548, 1737, 1738, 1763, 1762, 2062, 2063, 2088, 2087
1549, 1738, 1739, 1764, 1763, 2063, 2064, 2089, 2088
1550, 1739, 1740, 1765, 1764, 2064, 2065, 2090, 2089
1551, 1740, 1741, 1766, 1765, 2065, 2066, 2091, 2090
1552, 1741, 1742, 1767, 1766, 2066, 2067, 2092, 2091
1553, 1742, 1743, 1768, 1767, 2067, 2068, 2093, 2092
1554, 1743, 1744, 1769, 1768, 2068, 2069, 2094, 2093
1555, 1744, 1745, 1770, 1769, 2069, 2070, 2095, 2094
1556, 1745, 1746, 1771, 1770, 2070, 2071, 2096, 2095
1557, 1746, 1747, 1772, 1771, 2071, 2072, 2097, 2096
1558, 1747, 1748, 1773, 1772, 2072, 2073, 2098, 2097
1559, 1748, 1749, 1774, 1773, 2073, 2074, 2099, 2098
1560, 1749, 1750, 1775, 1774, 2074, 2075, 2100, 2099
1561, 1751, 1752, 1777, 1776, 2076, 2077, 2102, 2101
1562, 1752, 1753, 1778, 1777, 2077, 2078, 2103, 2102
1563, 1753, 1754, 1779, 1778, 2078, 2079, 2104, 2103
1564, 1754, 1755, 1780, 1779, 2079, 2080, 2105, 2104
1565, 1755, 1756, 1781, 1780, 2080, 2081, 2106, 2105
1566, 1756, 1757, 1782, 1781, 2081, 2082, 2107, 2106
1567, 1757, 1758, 1783, 1782, 2082, 2083, 2108, 2107
1568, 1758, 1759, 1784, 1783, 2083, 2084, 2109, 2108
1569, 1759, 1760, 1785, 1784, 2084, 2085, 2110, 2109
1570, 1760, 1761, 1786, 1785, 2085, 2086, 2111, 2110
1571, 1761, 1762, 1787, 1786, 2086, 2087, 2112, 2111
1572, 1762, 1763, 1788, 1787, 2087, 2088, 2113, 2112
1573, 1763, 1764, 1789, 1788, 2088, 2089, 2114, 2113
1574, 1764, 1765, 1790, 1789, 2089, 2090, 2115, 2114
1575, 1765, 1766, 1791, 1790, 2090, 2091, 2116, 2115
1576, 1766, 1767, 1792, 1791, 2091, 2092, 2117, 2116
1577, 1767, 1768, 1793, 1792, 2092, 2093, 2118, 2117
1578, 1768, 1769, 1794, 1793, 2093, 2094, 2119, 2118
1579, 1769, 1770, 1795, 1794, 2094, 2095, 2120, 2119
1580, 1770, 1771, 1796, 1795, 2095, 2096, 2121, 2120
1581, 1771, 1772, 1797, 1796, 2096, 2097, 2122, 2121
1582, 1772, 1773, 1798, 1797, 2097, 2098, 2123, 2122
1583, 1773, 1774, 1799, 1798, 2098, 2099, 2124, 2123
1584, 1774, 1775, 1800, 1799, 2099, 2100, 2125, 2124
1585, 1776, 1777, 1802, 1801, 2101, 2102, 2127, 2126
1586, 1777, 1778, 1803, 1802, 2102, 2103, 2128, 2127
1587, 1778, 1779, 1804, 1803, 2103, 2104, 2129, 2128
1588, 1779, 1780, 1805, 1804, 2104, 2105, 2130, 2129
1589, 1780, 1781, 1806, 1805, 2105, 2106, 2131, 2130
1590, 1781, 1782, 1807, 1806, 2106, 2107, 2132, 2131
1591, 1782, 1783, 1808, 1807, 2107, 2108, 2133, 2132
1592, 1783, 1784, 1809, 1808, 2108, 2109, 2134, 2133
1593, 1784, 1785, 1810, 1809, 2109, 2110, 2135, 2134
1594, 1785, 1786, 1811, 1810, 2110, 2111, 2136, 2135
1595, 1786, 1787, 1812, 1811, 2111, 2112, 2137, 2136
1596, 1787, 1788, 1813, 1812, 2112, 2113, 2138, 2137
1597, 1788, 1789, 1814, 1813, 2113, 2114, 2139, 2138
1598, 1789, 1790, 1815, 1814, 2114, 2115, 2140, 2139
1599, 1790, 1791, 1816, 1815, 2115, 2116, 2141, 2140
1600, 1791, 1792, 1817, 1816, 2116, 2117, 2142, 2141
1601, 1792, 1793, 1818, 1817, 2117, 2118, 2143, 2142
1602, 1793, 1794, 1819, 1818, 2118, 2119, 2144, 2143
1603, 1794, 1795, 1820, 1819, 2119, 2120, 2145, 2144
1604, 1795, 1796, 1821, 1820, 2120, 2121, 2146, 2145
1605, 1796, 1797, 1822, 1821, 2121, 2122, 2147, 2146
1606, 1797, 1798, 1823, 1822, 2122, 2123, 2148, 2147
1607, 1798, 1799, 1824, 1823, 2123, 2124, 2149, 2148
1608, 1799, 1800, 1825, 1824, 2124, 2125, 2150, 2149
1609, 1801, 1802, 1827, 1826, 2126, 2127, 2152, 2151
1610, 1802, 1803, 1828, 1827, 2127, 2128, 2153, 2152
1611, 1803, 1804, 1829, 1828, 2128, 2129, 2154, 2153
1612, 1804, 1805, 1830, 1829, 2129, 2130, 2155, 2154
1613, 1805, 1806, 1831, 1830, 2130, 2131, 2156, 2155
1614, 1806, 1807, 1832, 1831, 2131, 2132, 2157, 2156
1615, 1807, 1808, 1833, 1832, 2132, 2133, 2158, 2157
1616, 1808, 1809, 1834, 1833, 2133, 2134, 2159, 2158
1617, 1809, 1810, 1835, 1834, 2134, 2135, 2160, 2159
1618, 1810, 1811, 1836, 1835, 2135, 2136, 2161, 2160
1619, 1811, 1812, 1837, 1836, 2136, 2137, 2162, 2161
1620, 1812, 1813, 1838, 1837, 2137, 2138, 2163, 2162
1621, 1813, 1814, 1839, 1838, 2138, 2139, 2164, 2163
1622, 1814, 1815, 1840, 1839, 2139, 2140, 2165, 2164
1623, 1815, 1816, 1841, 1840, 2140, 2141, 2166, 2165
1624, 1816, 1817, 1842, 1841, 2141, 2142, 2167, 2166
1625, 1817, 1818, 1843, 1842, 2142, 2143, 2168, 2167
1626, 1818, 1819, 1844, 1843, 2143, 2144, 2169, 2168
1627, 1819, 1820, 1845, 1844, 2144, 2145, 2170, 2169
1628, 1820, 1821, 1846, 1845, 2145, 2146, 2171, 2170
1629, 1821, 1822, 1847, 1846, 2146, 2147, 2172, 2171
1630, 1822, 1823, 1848, 1847, 2147, 2148, 2173, 2172
1631, 1823, 1824, 1849, 1848, 2148, 2149, 2174, 2173
1632, 1824, 1825, 1850, 1849, 2149, 2150, 2175, 2174
1633, 1826, 1827, 1852, 1851, 2151, 2152, 2177, 2176
1634, 1827, 1828, 1853, 1852, 2152, 2153, 2178, 2177
1635, 1828, 1829, 1854, 1853, 2153, 2154, 2179, 2178
1636, 1829, 1830, 1855, 1854, 2154, 2155, 2180, 2179
1637, 1830, 1831, 1856, 1855, 2155, 2156, 2181, 2180
1638, 1831, 1832, 1857, 1856, 2156, 2157, 2182, 2181
1639, 1832, 1833, 1858, 1857, 2157, 2158, 2183, 2182
1640, 1833, 1834, 1859, 1858, 2158, 2159, 2184, 2183
1641, 1834, 1835, 1860, 1859, 2159, 2160, 2185, 2184
1642, 1835, 1836, 1861, 1860, 2160, 2161, 2186, 2185
1643, 1836, 1837, 1862, 1861, 2161, 2162, 2187, 2186
1644, 1837, 1838, 1863, 1862, 2162, 2163, 2188, 2187
1645, 1838, 1839, 1864, 1863, 2163, 2164, 2189, 2188
1646, 1839, 1840, 1865, 1864, 2164, 2165, 2190, 2189
1647, 1840, 1841, 1866, 1865, 2165, 2166, 2191, 2190
1648, 1841, 1842, 1867, 1866, 2166, 2167, 2192, 2191
1649, 1842, 1843, 1868, 1867, 2167, 2168, 2193, 2192
1650, 1843, 1844, 1869, 1868, 2168, 2169, 2194, 2193
1651, 1844, 1845, 1870, 1869, 2169, 2170, 2195, 2194
1652, 1845, 1846, 1871, 1870, 2170, 2171, 2196, 2195
1653, 1846, 1847, 1872, 1871, 2171, 2172, 2197, 2196
1654, 1847, 1848, 1873, 1872, 2172, 2173, 2198, 2197
1655, 1848, 1849, 1874, 1873, 2173, 2174, 2199, 2198
1656, 1849, 1850, 1875, 1874, 2174, 2175, 2200, 2199
1657, 1851, 1852, 1877, 1876, 2176, 2177, 2202, 2201
1658, 1852, 1853, 1878, 1877, 2177, 2178, 2203, 2202
1659, 1853, 1854, 1879, 1878, 2178, 2179, 2204, 2203
1660, 1854, 1855, 1880, 1879, 2179, 2180, 2205, 2204
1661, 1855, 1856, 1881, 1880, 2180, 2181, 2206, 2205
1662, 1856, 1857, 1882, 1881, 2181, 2182, 2207, 2206
1663, 1857, 1858, 1883, 1882, 2182, 2183, 2208, 2207
1664, 1858, 1859, 1884, 1883, 2183, 2184, 2209, 2208
1665, 1859, 1860, 1885, 1884, 2184, 2185, 2210, 2209
1666, 1860, 1861, 1886, 1885, 2185, 2186, 2211, 2210
1667, 1861, 1862, 1887, 1886, 2186, 2187, 2212, 2211
1668, 1862, 1863, 1888, 1887, 2187, 2188, 2213, 2212
1669, 1863, 1864, 1889, 1888, 2188, 2189, 2214, 2213
1670, 1864, 1865, 1890, 1889, 2189, 2190, 2215, 2214
1671, 1865, 1866, 1891, 1890, 2190, 2191, 2216, 2215
1672, 1866, 1867, 1892, 1891, 2191, 2192, 2217, 2216
1673, 1867, 1868, 1893, 1892, 2192, 2193, 2218, 2217
1674, 1868, 1869, 1894, 1893, 2193, 2194, 2219, 2218
1675, 1869, 1870, 1895, 1894, 2194, 2195, 2220, 2219
1676, 1870, 1871, 1896, 1895, 2195, 2196, 2221, 2220
1677, 1871, 1872, 1897, 1896, 2196, 2197, 2222, 2221
1678, 1872, 1873, 1898, 1897, 2197, 2198, 2223, 2222
1679, 1873, 1874, 1899, 1898, 2198, 2199, 2224, 2223
1680, 1874, 1875, 1900, 1899, 2199, 2200, 2225, 2224
1681, 1876, 1877, 1902, 1901, 2201, 2202, 2227, 2226
1682, 1877, 1878, 1903, 1902, 2202, 2203, 2228, 2227
1683, 1878, 1879, 1904, 1903, 2203, 2204, 2229, 2228
1684, 1879, 1880, 1905, 1904, 2204, 2205, 2230, 2229
1685, 1880, 1881, 1906, 1905, 2205, 2206, 2231, 2230
1686, 1881, 1882, 1907, 1906, 2206, 2207, 2232, 2231
1687, 1882, 1883, 1908, 1907, 2207, 2208, 2233, 2232
1688, 1883, 1884, 1909, 1908, 2208, 2209, 2234, 2233
1689, 1884, 1885, 1910, 1909, 2209, 2210, 2235, 2234
1690, 1885, 1886, 1911, 1910, 2210, 2211, 2236, 2235
1691, 1886, 1887, 1912, 1911, 2211, 2212, 2237, 2236
1692, 1887, 1888, 1913, 1912, 2212, 2213, 2238, 2237
1693, 1888, 1889, 1914, 1913, 2213, 2214, 2239, 2238
1694, 1889, 1890, 1915, 1914, 2214, 2215, 2240, 2239
1695, 1890, 1891, 1916, 1915, 2215, 2216, 2241, 2240
1696, 1891, 1892, 1917, 1916, 2216, 2217, 2242, 2241
1697, 1892, 1893, 1918, 1917, 2217, 2218, 2243, 2242
1698, 1893, 1894, 1919, 1918, 2218, 2219, 2244, 2243
1699, 1894, 1895, 1920, 1919, 2219, 2220, 2245, 2244
1700, 1895, 1896, 1921, 1920, 2220, 2221, 2246, 2245
1701, 1896, 1897, 1922, 1921, 2221, 2222, 2247, 2246
1702, 1897, 1898, 1923, 1922, 2222, 2223, 2248, 2247
1703, 1898, 1899, 1924, 1923, 2223, 2224, 2249, 2248
1704, 1899, 1900, 1925, 1924, 2224, 2225, 2250, 2249
1705, 1901, 1902, 1927, 1926, 2226, 2227, 2252, 2251
1706, 1902, 1903, 1928, 1927, 2227, 2228, 2253, 2252
1707, 1903, 1904, 1929, 1928, 2228, 2229, 2254, 2253
1708, 1904, 1905, 1930, 1929, 2229, 2230, 2255, 2254
1709, 1905, 1906, 1931, 1930, 2230, 2231, 2256, 2255
1710, 1906, 1907, 1932, 1931, 2231, 2232, 2257, 2256
1711, 1907, 1908, 1933, 1932, 2232, 2233, 2258, 2257
1712, 1908, 1909, 1934, 1933, 2233, 2234, 2259, 2258
1713, 1909, 1910, 1935, 1934, 2234, 2235, 2260, 2259
1714, 1910, 1911, 1936, 1935, 2235, 2236, 2261, 2260
1715, 1911, 1912, 1937, 1936, 2236, 2237, 2262, 2261
1716, 1912, 1913, 1938, 1937, 2237, 2238, 2263, 2262
1717, 1913, 1914, 1939, 1938, 2238, 2239, 2264, 2263
1718, 1914, 1915, 1940, 1939, 2239, 2240, 2265, 2264
1719, 1915, 1916, 1941, 1940, 2240, 2241, 2266, 2265
1720, 1916, 1917, 1942, 1941, 2241, 2242, 2267, 2266
1721, 1917, 1918, 1943, 1942, 2242, 2243, 2268, 2267
1722, 1918, 1919, 1944, 1943, 2243, 2244, 2269, 2268
1723, 1919, 1920, 1945, 1944, 2244, 2245, 2270, 2269
1724, 1920, 1921, 1946, 1945, 2245, 2246, 2271, 2270
1725, 1921, 1922, 1947, 1946, 2246, 2247, 2272, 2271
1726, 1922, 1923, 1948, 1947, 2247, 2248, 2273, 2272
1727, 1923, 1924, 1949, 1948, 2248, 2249, 2274, 2273
1728, 1924, 1925, 1950, 1949, 2249, 2250, 2275, 2274
1729, 1951, 1952, 1977, 1976, 2276, 2277, 2302, 2301
1730, 1952, 1953, 1978, 1977, 2277, 2278, 2303, 2302
1731, 1953, 1954, 1979, 1978, 2278, 2279, 2304, 2303
1732, 1954, 1955, 1980, 1979, 2279, 2280, 2305, 2304
1733, 1955, 1956, 1981, 1980, 2280, 2281, 2306, 2305
1734, 1956, 1957, 1982, 1981, 2281, 2282, 2307, 2306
1735, 1957, 1958, 1983, 1982, 2282, 2283, 2308, 2307
1736, 1958, 1959, 1984, 1983, 2283, 2284, 2309, 2308
1737, 1959, 1960, 1985, 1984, 2284, 2285, 2310, 2309
1738, 1960, 1961, 1986, 1985, 2285, 2286, 2311, 2310
1739, 1961, 1962, 1987, 1986, 2286, 2287, 2312, 2311
1740, 1962, 1963, 1988, 1987, 2287, 2288, 2313, 2312
1741, 1963, 1964, 1989, 1988, 2288, 2289, 2314, 2313
1742, 1964, 1965, 1990, 1989, 2289, 2290, 2315, 2314
1743, 1965, 1966, 1991, 1990, 2290, 2291, 2316, 2315
1744, 1966, 1967, 1992, 1991, 2291, 2292, 2317, 2316
1745, 1967, 1968, 1993, 1992, 2292, 2293, 2318, 2317
1746, 1968, 1969, 1994, 1993, 2293, 2294, 2319, 2318
1747, 1969, 1970, 1995, 1994, 2294, 2295, 2320, 2319
1748, 1970, 1971, 1996, 1995, 2295, 2296, 2321, 2320
1749, 1971, 1972, 1997, 1996, 2296, 2297, 2322, 2321
1750, 1972, 1973, 1998, 1997, 2297, 2298, 2323, 2322
1751, 1973, 1974, 1999, 1998, 2298, 2299, 2324, 2323
1752, 1974, 1975, 2000, 1999, 2299, 2300, 2325, 2324
1753, 1976, 1977, 2002, 2001, 2301, 2302, 2327, 2326
1754, 1977, 1978, 2003, 2002, 2302, 2303, 2328, 2327
1755, 1978, 1979, 2004, 2003, 2303, 2304, 2329, 2328
1756, 1979, 1980, 2005, 2004, 2304, 2305, 2330, 2329
1757, 1980, 1981, 2006, 2005, 2305, 2306, 2331, 2330
1758, 1981, 1982, 2007, 2006, 2306, 2307, 2332, 2331
1759, 1982, 1983, 2008, 2007, 2307, 2308, 2333, 2332
1760, 1983, 1984, 2009, 2008, 2308, 2309, 2334, 2333
1761, 1984, 1985, 2010, 2009, 2309, 2310, 2335, 2334
1762, 1985, 1986, 2011, 2010, 2310, 2311, 2336, 2335
1763, 1986, 1987, 2012, 2011, 2311, 2312, 2337, 2336
1764, 1987, 1988, 2013, 2012, 2312, 2313, 2338, 2337
1765, 1988, 1989, 2014, 2013, 2313, 2314, 2339, 2338
1766, 1989, 1990, 2015, 2014, 2314, 2315, 2340, 2339
1767, 1990, 1991, 2016, 2015, 2315, 2316, 2341, 2340
1768, 1991, 1992, 2017, 2016, 2316, 2317, 2342, 2341
1769, 1992, 1993, 2018, 2017, 2317, 2318, 2343, 2342
1770, 1993, 1994, 2019, 2018, 2318, 2319, 2344, 2343
1771, 1994, 1995, 2020, 2019, 2319, 2320, 2345, 2344
1772, 1995, 1996, 2021, 2020, 2320, 2321, 2346, 2345
1773, 1996, 1997, 2022, 2021, 2321, 2322, 2347, 2346
1774, 1997, 1998, 2023, 2022, 2322, 2323, 2348, 2347
1775, 1998, 1999, 2024, 2023, 2323, 2324, 2349, 2348
1776, 1999, 2000, 2025, 2024, 2324, 2325, 2350, 2349
1777, 2001, 2002, 2027, 2026, 2326, 2327, 2352, 2351
1778, 2002, 2003, 2028, 2027, 2327, 2328, 2353, 2352
1779, 2003, 2004, 2029, 2028, 2328, 2329, 2354, 2353
1780, 2004, 2005, 2030, 2029, 2329, 2330, 2355, 2354
1781, 2005, 2006, 2031, 2030, 2330, 2331, 2356, 2355
1782, 2006, 2007, 2032, 2031, 2331, 2332, 2357, 2356
1783, 2007, 2008, 2033, 2032, 2332, 2333, 2358, 2357
1784, 2008, 2009, 2034, 2033, 2333, 2334, 2359, 2358
1785, 2009, 2010, 2035, 2034, 2334, 2335, 2360, 2359
1786, 2010, 2011, 2036, 2035, 2335, 2336, 2361, 2360
1787, 2011, 2012, 2037, 2036, 2336, 2337, 2362, 2361
1788, 2012, 2013, 2038, 2037, 2337, 2338, 2363, 2362
1789, 2013, 2014, 2039, 2038, 2338, 2339, 2364, 2363
1790, 2014, 2015, 2040, 2039, 2339, 2340, 2365, 2364
1791, 2015, 2016, 2041, 2040, 2340, 2341, 2366, 2365
1792, 2016, 2017, 2042, 2041, 2341, 2342, 2367, 2366
1793, 2017, 2018, 2043, 2042, 2342, 2343, 2368, 2367
1794, 2018, 2019, 2044, 2043, 2343, 2344, 2369, 2368
1795, 2019, 2020, 2045, 2044, 2344, 2345, 2370, 2369
1796, 2020, 2021, 2046, 2045, 2345, 2346, 2371, 2370
1797, 2021, 2022, 2047, 2046, 2346, 2347, 2372, 2371
1798, 2022, 2023, 2048, 2047, 2347, 2348, 2373, 2372
1799, 2023, 2024, 2049, 2048, 2348, 2349, 2374, 2373
1800, 2024, 2025, 2050, 2049, 2349, 2350, 2375, 2374
1801, 2026, 2027, 2052, 2051, 2351, 2352, 2377, 2376
1802, 2027, 2028, 2053, 2052, 2352, 2353, 2378, 2377
1803, 2028, 2029, 2054, 2053, 2353, 2354, 2379, 2378
1804, 2029, 2030, 2055, 2054, 2354, 2355, 2380, 2379
1805, 2030, 2031, 2056, 2055, 2355, 2356, 2381, 2380
1806, 2031, 2032, 2057, 2056, 2356, 2357, 2382, 2381
1807, 2032, 2033, 2058, 2057, 2357, 2358, 2383, 2382
1808, 2033, 2034, 2059, 2058, 2358, 2359, 2384, 2383
1809, 2034, 2035, 2060, 2059, 2359, 2360, 2385, 2384
1810, 2035, 2036, 2061, 2060, 2360, 2361, 2386, 2385
1811, 2036, 2037, 2062, 2061, 2361, 2362, 2387, 2386
1812, 2037, 2038, 2063, 2062, 2362, 2363, 2388, 2387
1813, 2038, 2039, 2064, 2063, 2363, 2364, 2389, 2388
1814, 2039, 2040, 2065, 2064, 2364, 2365, 2390, 2389
1815, 2040, 2041, 2066, 2065, 2365, 2366, 2391, 2390
1816, 2041, 2042, 2067, 2066, 2366, 2367, 2392, 2391
1817, 2042, 2043, 2068, 2067, 2367, 2368, 2393, 2392
1818, 2043, 2044, 2069, 2068, 2368, 2369, 2394, 2393
1819, 2044, 2045, 2070, 2069, 2369, 2370, 2395, 2394
1820, 2045, 2046, 2071, 2070, 2370, 2371, 2396, 2395
1821, 2046, 2047, 2072, 2071, 2371, 2372, 2397, 2396
1822, 2047, 2048, 2073, 2072, 2372, 2373, 2398, 2397
1823, 2048, 2049, 2074, 2073, 2373, 2374, 2399, 2398
1824, 2049, 2050, 2075, 2074, 2374, 2375, 2400, 2399
1825, 2051, 2052, 2077, 2076, 2376, 2377, 2402, 2401
1826, 2052, 2053, 2078, 2077, 2377, 2378, 2403, 2402
1827, 2053, 2054, 2079, 2078, 2378, 2379, 2404, 2403
1828, 2054, 2055, 2080, 2079, 2379, 2380, 2405, 2404
1829, 2055, 2056, 2081, 2080, 2380, 2381, 2406, 2405
1830, 2056, 2057, 2082, 2081, 2381, 2382, 2407, 2406
1831, 2057, 2058, 2083, 2082, 2382, 2383, 2408, 2407
1832, 2058, 2059, 2084, 2083, 2383, 2384, 2409, 2408
1833, 2059, 2060, 2085, 2084, 2384, 2385, 2410, 2409
1834, 2060, 2061, 2086, 2085, 2385, 2386, 2411, 2410
1835, 2061, 2062, 2087, 2086, 2386, 2387, 2412, 2411
1836, 2062, 2063, 2088, 2087, 2387, 2388, 2413, 2412
1837, 2063, 2064, 2089, 2088, 2388, 2389, 2414, 2413
1838, 2064, 2065, 2090, 2089, 2389, 2390, 2415, 2414
1839, 2065, 2066, 2091, 2090, 2390, 2391, 2416, 2415
1840, 2066, 2067, 2092, 2091, 2391, 2392, 2417, 2416
1841, 2067, 2068, 2093, 2092, 2392, 2393, 2418, 2417
1842, 2068, 2069, 2094, 2093, 2393, 2394, 2419, 2418
1843, 2069, 2070, 2095, 2094, 2394, 2395, 2420, 2419
1844, 2070, 2071, 2096, 2095, 2395, 2396, 2421, 2420
1845, 2071, 2072, 2097, 2096, 2396, 2397, 2422, 2421
1846, 2072, 2073, 2098, 2097, 2397, 2398, 2423, 2422
1847, 2073, 2074, 2099, 2098, 2398, 2399, 2424, 2423
1848, 2074, 2075, 2100, 2099, 2399, 2400, 2425, 2424
1849, 2076, 2077, 2102, 2101, 2401, 2402, 2427, 2426
1850, 2077, 2078, 2103, 2102, 2402, 2403, 2428, 2427
1851, 2078, 2079, 2104, 2103, 2403, 2404, 2429, 2428
1852, 2079, 2080, 2105, 2104, 2404, 2405, 2430, 2429
1853, 2080, 2081, 2106, 2105, 2405, 2406, 2431, 2430
1854, 2081, 2082, 2107, 2106, 2406, 2407, 2432, 2431
1855, 2082, 2083, 2108, 2107, 2407, 2408, 2433, 2432
1856, 2083, 2084, 2109, 2108, 2408, 2409, 2434, 2433
1857, 2084, 2085, 2110, 2109, 2409, 2410, 2435, 2434
1858, 2085, 2086, 2111, 2110, 2410, 2411, 2436, 2435
1859, 2086, 2087, 2112, 2111, 2411, 2412, 2437, 2436
1860, 2087, 2088, 2113, 2112, 2412, 2413, 2438, 2437
1861, 2088, 2089, 2114, 2113, 2413, 2414, 2439, 2438
1862, 2089, 2090, 2115, 2114, 2414, 2415, 2440, 2439
1863, 2090, 2091, 2116, 2115, 2415, 2416, 2441, 2440
1864, 2091, 2092, 2117, 2116, 2416, 2417, 2442, 2441
1865, 2092, 2093, 2118, 2117, 2417, 2418, 2443, 2442
1866, 2093, 2094, 2119, 2118, 2418, 2419, 2444, 2443
1867, 2094, 2095, 2120, 2119, 2419, 2420, 2445, 2444
1868, 2095, 2096, 2121, 2120, 2420, 2421, 2446, 2445
1869, 2096, 2097, 2122, 2121, 2421, 2422, 2447, 2446
1870, 2097, 2098, 2123, 2122, 2422, 2423, 2448, 2447
1871, 2098, 2099, 2124, 2123, 2423, 2424, 2449, 2448
1872, 2099, 2100, 2125, 2124, 2424, 2425, 2450, 2449
1873, 2101, 2102, 2127, 2126, 2426, 2427, 2452, 2451
1874, 2102, 2103, 2128, 2127, 2427, 2428, 2453, 2452
1875, 2103, 2104, 2129, 2128, 2428, 2429, 2454, 2453
1876, 2104, 2105, 2130, 2129, 2429, 2430, 2455, 2454
1877, 2105, 2106, 2131, 2130, 2430, 2431, 2456, 2455
1878, 2106, 2107, 2132, 2131, 2431, 2432, 2457, 2456
1879, 2107, 2108, 2133, 2132, 2432, 2433, 2458, 2457
1880, 2108, 2109, 2134, 2133, 2433, 2434, 2459, 2458
1881, 2109, 2110, 2135, 2134, 2434, 2435, 2460, 2459
1882, 2110, 2111, 2136, 2135, 2435, 2436, 2461, 2460
1883, 2111, 2112, 2137, 2136, 2436, 2437, 2462, 2461
1884, 2112, 2113, 2138, 2137, 2437, 2438, 2463, 2462
1885, 2113, 2114, 2139, 2138, 2438, 2439, 2464, 2463
1886, 2114, 2115, 2140, 2139, 2439, 2440, 2465, 2464
1887, 2115, 2116, 2141, 2140, 2440, 2441, 2466, 2465
1888, 2116, 2117, 2142, 2141, 2441, 2442, 2467, 2466
1889, 2117, 2118, 2143, 2142, 2442, 2443, 2468, 2467
1890, 2118, 2119, 2144, 2143, 2443, 2444, 2469, 2468
1891, 2119, 2120, 2145, 2144, 2444, 2445, 2470, 2469
1892, 2120, 2121, 2146, 2145, 2445, 2446, 2471, 2470
1893, 2121, 2122, 2147, 2146, 2446, 2447, 2472, 2471
1894, 2122, 2123, 2148, 2147, 2447, 2448, 2473, 2472
1895, 2123, 2124, 2149, 2148, 2448, 2449, 2474, 2473
1896, 2124, 2125, 2150, 2149, 2449, 2450, 2475, 2474
1897, 2126, 2127, 2152, 2151, 2451, 2452, 2477, 2476
1898, 2127, 2128, 2153, 2152, 2452, 2453, 2478, 2477
1899, 2128, 2129, 2154, 2153, 2453, 2454, 2479, 2478
1900, 2129, 2130, 2155, 2154, 2454, 2455, 2480, 2479
1901, 2130, 2131, 2156, 2155, 2455, 2456, 2481, 2480
1902, 2131, 2132, 2157, 2156, 2456, 2457, 2482, 2481
1903, 2132, 2133, 2158, 2157, 2457, 2458, 2483, 2482
1904, 2133, 2134, 2159, 2158, 2458, 2459, 2484, 2483
1905, 2134, 2135, 2160, 2159, 2459, 2460, 2485, 2484
1906, 2135, 2136, 2161, 2160, 2460, 2461, 2486, 2485
1907, 2136, 2137, 2162, 2161, 2461, 2462, 2487, 2486
1908, 2137, 2138, 2163, 2162, 2462, 2463, 2488, 2487
1909, 2138, 2139, 2164, 2163, 2463, 2464, 2489, 2488
1910, 2139, 2140, 2165, 2164, 2464, 2465, 2490, 2489
1911, 2140, 2141, 2166, 2165, 2465, 2466, 2491, 2490
1912, 2141, 2142, 2167, 2166, 2466, 2467, 2492, 2491
1913, 2142, 2143, 2168, 2167, 2467, 2468, 2493, 2492
1914, 2143, 2144, 2169, 2168, 2468, 2469, 2494, 2493
1915, 2144, 2145, 2170, 2169, 2469, 2470, 2495, 2494
1916, 2145, 2146, 2171, 2170, 2470, 2471, 2496, 2495
1917, 2146, 2147, 2172, 2171, 2471, 2472, 2497, 2496
1918, 2147, 2148, 2173, 2172, 2472, 2473, 2498, 2497
1919, 2148, 2149, 2174, 2173, 2473, 2474, 2499, 2498
1920, 2149, 2150, 2175, 2174, 2474, 2475, 2500, 2499
1921, 2151, 2152, 2177, 2176, 2476, 2477, 2502, 2501
1922, 2152, 2153, 2178, 2177, 2477, 2478, 2503, 2502
1923, 2153, 2154, 2179, 2178, 2478, 2479, 2504, 2503
1924, 2154, 2155, 2180, 2179, 2479, 2480, 2505, 2504
1925, 2155, 2156, 2181, 2180, 2480, 2481, 2506, 2505
1926, 2156, 2157, 2182, 2181, 2481, 2482, 2507, 2506
1927, 2157, 2158, 2183, 2182, 2482, 2483, 2508, 2507
1928, 2158, 2159, 2184, 2183, 2483, 2484, 2509, 2508
1929, 2159, 2160, 2185, 2184, 2484, 2485, 2510, 2509
1930, 2160, 2161, 2186, 2185, 2485, 2486, 2511, 2510
1931, 2161, 2162, 2187, 2186, 2486, 2487, 2512, 2511
1932, 2162, 2163, 2188, 2187, 2487, 2488, 2513, 2512
1933, 2163, 2164, 2189, 2188, 2488, 2489, 2514, 2513
1934, 2164, 2165, 2190, 2189, 2489, 2490, 2515, 2514
1935, 2165, 2166, 2191, 2190, 2490, 2491, 2516, 2515
1936, 2166, 2167, 2192, 2191, 2491, 2492, 2517, 2516
1937, 2167, 2168, 2193, 2192, 2492, 2493, 2518, 2517
1938, 2168, 2169, 2194, 2193, 2493, 2494, 2519, 2518
1939, 2169, 2170, 2195, 2194, 2494, 2495, 2520, 2519
1940, 2170, 2171, 2196, 2195, 2495, 2496, 2521, 2520
1941, 2171, 2172, 2197, 2196, 2496, 2497, 2522, 2521
1942, 2172, 2173, 2198, 2197, 2497, 2498, 2523, 2522
1943, 2173, 2174, 2199, 2198, 2498, 2499, 2524, 2523
1944, 2174, 2175, 2200, 2199, 2499, 2500, 2525, 2524
1945, 2176, 2177, 2202, 2201, 2501, 2502, 2527, 2526
1946, 2177, 2178, 2203, 2202, 2502, 2503, 2528, 2527
1947, 2178, 2179, 2204, 2203, 2503, 2504, 2529, 2528
1948, 2179, 2180, 2205, 2204, 2504, 2505, 2530, 2529
1949, 2180, 2181, 2206, 2205, 2505, 2506, 2531, 2530
1950, 2181, 2182, 2207, 2206, 2506, 2507, 2532, 2531
1951, 2182, 2183, 2208, 2207, 2507, 2508, 2533, 2532
1952, 2183, 2184, 2209, 2208, 2508, 2509, 2534, 2533
1953, 2184, 2185, 2210, 2209, 2509, 2510, 2535, 2534
1954, 2185, 2186, 2211, 2210, 2510, 2511, 2536, 2535
1955, 2186, 2187, 2212, 2211, 2511, 2512, 2537, 2536
1956, 2187, 2188, 2213, 2212, 2512, 2513, 2538, 2537
1957, 2188, 2189, 2214, 2213, 2513, 2514, 2539, 2538
1958, 2189, 2190, 2215, 2214, 2514, 2515, 2540, 2539
1959, 2190, 2191, 2216, 2215, 2515, 2516, 2541, 2540
1960, 2191, 2192, 2217, 2216, 2516, 2517, 2542, 2541
1961, 2192, 2193, 2218, 2217, 2517, 2518, 2543, 2542
1962, 2193, 2194, 2219, 2218, 2518, 2519, 2544, 2543
1963, 2194, 2195, 2220, 2219, 2519, 2520, 2545, 2544
1964, 2195, 2196, 2221, 2220, 2520, 2521, 2546, 2545
1965, 2196, 2197, 2222, 2221, 2521, 2522, 2547, 2546
1966, 2197, 2198, 2223, 2222, 2522, 2523, 2548, 2547
1967, 2198, 2199, 2224, 2223, 2523, 2524, 2549, 2548
1968, 2199, 2200, 2225, 2224, 2524, 2525, 2550, 2549
1969, 2201, 2202, 2227, 2226, 2526, 2527, 2552, 2551
1970, 2202, 2203, 2228, 2227, 2527, 2528, 2553, 2552
1971, 2203, 2204, 2229, 2228, 2528, 2529, 2554, 2553
1972, 2204, 2205, 2230, 2229, 2529, 2530, 2555, 2554
1973, 2205, 2206, 2231, 2230, 2530, 2531, 2556, 2555
1974, 2206, 2207, 2232, 2231, 2531, 2532, 2557, 2556
1975, 2207, 2208, 2233, 2232, 2532, 2533, 2558, 2557
1976, 2208, 2209, 2234, 2233, 2533, 2534, 2559, 2558
1977, 2209, 2210, 2235, 2234, 2534, 2535, 2560, 2559
1978, 2210, 2211, 2236, 2235, 2535, 2536, 2561, 2560
1979, 2211, 2212, 2237, 2236, 2536, 2537, 2562, 2561
1980, 2212, 2213, 2238, 2237, 2537, 2538, 2563, 2562
1981, 2213, 2214, 2239, 2238, 2538, 2539, 2564, 2563
1982, 2214, 2215, 2240, 2239, 2539, 2540, 2565, 2564
1983, 2215, 2216, 2241, 2240, 2540, 2541, 2566, 2565
1984, 2216, 2217, 2242, 2241, 2541, 2542, 2567, 2566
1985, 2217, 2218, 2243, 2242, 2542, 2543, 2568, 2567
1986, 2218, 2219, 2244, 2243, 2543, 2544, 2569, 2568
1987, 2219, 2220, 2245, 2244, 2544, 2545, 2570, 2569
1988, 2220, 2221, 2246, 2245, 2545, 2546, 2571, 2570
1989, 2221, 2222, 2247, 2246, 2546, 2547, 2572, 2571
1990, 2222, 2223, 2248, 2247, 2547, 2548, 2573, 2572
1991, 2223, 2224, 2249, 2248, 2548, 2549, 2574, 2573
1992, 2224, 2225, 2250, 2249, 2549, 2550, 2575, 2574
1993, 2226, 2227, 2252, 2251, 2551, 2552, 2577, 2576
1994, 2227, 2228, 2253, 2252, 2552, 2553, 2578, 2577
1995, 2228, 2229, 2254, 2253, 2553, 2554, 2579, 2578
1996, 2229, 2230, 2255, 2254, 2554, 2555, 2580, 2579
1997, 2230, 2231, 2256, 2255, 2555, 2556, 2581, 2580
1998, 2231, 2232, 2257, 2256, 2556, 2557, 2582, 2581
1999, 2232, 2233, 2258, 2257, 2557, 2558, 2583, 2582
2000, 2233, 2234, 2259, 2258, 2558, 2559, 2584, 2583
2001, 2234, 2235, 2260, 2259, 2559, 2560, 2585, 2584
2002, 2235, 2236, 2261, 2260, 2560, 2561, 2586, 2585
2003, 2236, 2237, 2262, 2261, 2561, 2562, 2587, 2586
2004, 2237, 2238, 2263, 2262, 2562, 2563, 2588, 2587
2005, 2238, 2239, 2264, 2263, 2563, 2564, 2589, 2588
2006, 2239, 2240, 2265, 2264, 2564, 2565, 2590, 2589
2007, 2240, 2241, 2266, 2265, 2565, 2566, 2591, 2590
2008, 2241, 2242, 2267, 2266, 2566, 2567, 2592, 2591
2009, 2242, 2243, 2268, 2267, 2567, 2568, 2593, 2592
2010, 2243, 2244, 2269, 2268, 2568, 2569, 2594, 2593
2011, 2244, 2245, 2270, 2269, 2569, 2570, 2595, 2594
2012, 2245, 2246, 2271, 2270, 2570, 2571, 2596, 2595
2013, 2246, 2247, 2272, 2271, 2571, 2572, 2597, 2596
2014, 2247, 2248, 2273, 2272, 2572, 2573, 2598, 2597
2015, 2248, 2249, 2274, 2273, 2573, 2574, 2599, 2598
2016, 2249, 2250, 2275, 2274, 2574, 2575, 2600, 2599
2017, 2276, 2277, 2302, 2301, 2601, 2602, 2627, 2626
2018, 2277, 2278, 2303, 2302, 2602, 2603, 2628, 2627
2019, 2278, 2279, 2304, 2303, 2603, 2604, 2629, 2628
2020, 2279, 2280, 2305, 2304, 2604, 2605, 2630, 2629
2021, 2280, 2281, 2306, 2305, 2605, 2606, 2631, 2630
2022, 2281, 2282, 2307, 2306, 2606, 2607, 2632, 2631
2023, 2282, 2283, 2308, 2307, 2607, 2608, 2633, 2632
2024, 2283, 2284, 2309, 2308, 2608, 2609, 2634, 2633
2025, 2284, 2285, 2310, 2309, 2609, 2610, 2635, 2634
2026, 2285, 2286, 2311, 2310, 2610, 2611, 2636, 2635
2027, 2286, 2287, 2312, 2311, 2611, 2612, 2637, 2636
2028, 2287, 2288, 2313, 2312, 2612, 2613, 2638, 2637
2029, 2288, 2289, 2314, 2313, 2613, 2614, 2639, 2638
2030, 2289, 2290, 2315, 2314, 2614, 2615, 2640, 2639
2031, 2290, 2291, 2316, 2315, 2615, 2616, 2641, 2640
2032, 2291, 2292, 2317, 2316, 2616, 2617, 2642, 2641
2033, 2292, 2293, 2318, 2317, 2617, 2618, 2643, 2642
2034, 2293, 2294, 2319, 2318, 2618, 2619, 2644, 2643
2035, 2294, 2295, 2320, 2319, 2619, 2620, 2645, 2644
2036, 2295, 2296, 2321, 2320, 2620, 2621, 2646, 2645
2037, 2296, 2297, 2322, 2321, 2621, 2622, 2647, 2646
2038, 2297, 2298, 2323, 2322, 2622, 2623, 2648, 2647
2039, 2298, 2299, 2324, 2323, 2623, 2624, 2649, 2648
2040, 2299, 2300, 2325, 2324, 2624, 2625, 2650, 2649
2041, 2301, 2302, 2327, 2326, 2626, 2627, 2652, 2651
2042, 2302, 2303, 2328, 2327, 2627, 2628, 2653, 2652
2043, 2303, 2304, 2329, 2328, 2628, 2629, 2654, 2653
2044, 2304, 2305, 2330, 2329, 2629, 2630, 2655, 2654
2045, 2305, 2306, 2331, 2330, 2630, 2631, 2656, 2655
2046, 2306, 2307, 2332, 2331, 2631, 2632, 2657, 2656
2047, 2307, 2308, 2333, 2332, 2632, 2633, 2658, 2657
2048, 2308, 2309, 2334, 2333, 2633, 2634, 2659, 2658
2049, 2309, 2310, 2335, 2334, 2634, 2635, 2660, 2659
2050, 2310, 2311, 2336, 2335, 2635, 2636, 2661, 2660
2051, 2311, 2312, 2337, 2336, 2636, 2637, 2662, 2661
2052, 2312, 2313, 2338, 2337, 2637, 2638, 2663, 2662
2053, 2313, 2314, 2339, 2338, 2638, 2639, 2664, 2663
2054, 2314, 2315, 2340, 2339, 2639, 2640, 2665, 2664
2055, 2315, 2316, 2341, 2340, 2640, 2641, 2666, 2665
2056, 2316, 2317, 2342, 2341, 2641, 2642, 2667, 2666
2057, 2317, 2318, 2343, 2342, 2642, 2643, 2668, 2667
2058, 2318, 2319, 2344, 2343, 2643, 2644, 2669, 2668
2059, 2319, 2320, 2345, 2344, 2644, 2645, 2670, 2669
2060, 2320, 2321, 2346, 2345, 2645, 2646, 2671, 2670
2061, 2321, 2322, 2347, 2346, 2646, 2647, 2672, 2671
2062, 2322, 2323, 2348, 2347, 2647, 2648, 2673, 2672
2063, 2323, 2324, 2349, 2348, 2648, 2649, 2674, 2673
2064, 2324, 2325, 2350, 2349, 2649, 2650, 2675, 2674
2065, 2326, 2327, 2352, 2351, 2651, 2652, 2677, 2676
2066, 2327, 2328, 2353, 2352, 2652, 2653, 2678, 2677
2067, 2328, 2329, 2354, 2353, 2653, 2654, 2679, 2678
2068, 2329, 2330, 2355, 2354, 2654, 2655, 2680, 2679
2069, 2330, 2331, 2356, 2355, 2655, 2656, 2681, 2680
2070, 2331, 2332, 2357, 2356, 2656, 2657, 2682, 2681
2071, 2332, 2333, 2358, 2357, 2657, 2658, 2683, 2682
2072, 2333, 2334, 2359, 2358, 2658, 2659, 2684, 2683
2073, 2334, 2335, 2360, 2359, 2659, 2660, 2685, 2684
2074, 2335, 2336, 2361, 2360, 2660, 2661, 2686, 2685
2075, 2336, 2337, 2362, 2361, 2661, 2662, 2687, 2686
2076, 2337, 2338, 2363, 2362, 2662, 2663, 2688, 2687
2077, 2338, 2339, 2364, 2363, 2663, 2664, 2689, 2688
2078, 2339, 2340, 2365, 2364, 2664, 2665, 2690, 2689
2079, 2340, 2341, 2366, 2365, 2665, 2666, 2691, 2690
2080, 2341, 2342, 2367, 2366, 2666, 2667, 2692, 2691
2081, 2342, 2343, 2368, 2367, 2667, 2668, 2693, 2692
2082, 2343, 2344, 2369, 2368, 2668, 2669, 2694, 2693
2083, 2344, 2345, 2370, 2369, 2669, 2670, 2695, 2694
2084, 2345, 2346, 2371, 2370, 2670, 2671, 2696, 2695
2085, 2346, 2347, 2372, 2371, 2671, 2672, 2697, 2696
2086, 2347, 2348, 2373, 2372, 2672, 2673, 2698, 2697
2087, 2348, 2349, 2374, 2373, 2673, 2674, 2699, 2698
2088, 2349, 2350, 2375, 2374, 2674, 2675, 2700, 2699
2089, 2351, 2352, 2377, 2376, 2676, 2677, 2702, 2701
2090, 2352, 2353, 2378, 2377, 2677, 2678, 2703, 2702
2091, 2353, 2354, 2379, 2378, 2678, 2679, 2704, 2703
2092, 2354, 2355, 2380, 2379, 2679, 2680, 2705, 2704
2093, 2355, 2356, 2381, 2380, 2680, 2681, 2706, 2705
2094, 2356, 2357, 2382, 2381, 2681, 2682, 2707, 2706
2095, 2357, 2358, 2383, 2382, 2682, 2683, 2708, 2707
2096, 2358, 2359, 2384, 2383, 2683, 2684, 2709, 2708
2097, 2359, 2360, 2385, 2384, 2684, 2685, 2710, 2709
2098, 2360, 2361, 2386, 2385, 2685, 2686, 2711, 2710
2099, 2361, 2362, 2387, 2386, 2686, 2687, 2712, 2711
2100, 2362, 2363, 2388, 2387, 2687, 2688, 2713, 2712
2101, 2363, 2364, 2389, 2388, 2688, 2689, 2714, 2713
2102, 2364, 2365, 2390, 2389, 2689, 2690, 2715, 2714
2103, 2365, 2366, 2391, 2390, 2690, 2691, 2716, 2715
2104, 2366, 2367, 2392, 2391, 2691, 2692, 2717, 2716
2105, 2367, 2368, 2393, 2392, 2692, 2693, 2718, 2717
2106, 2368, 2369, 2394, 2393, 2693, 2694, 2719, 2718
2107, 2369, 2370, 2395, 2394, 2694, 2695, 2720, 2719
2108, 2370, 2371, 2396, 2395, 2695, 2696, 2721, 2720
2109, 2371, 2372, 2397, 2396, 2696, 2697, 2722, 2721
2110, 2372, 2373, 2398, 2397, 2697, 2698, 2723, 2722
2111, 2373, 2374, 2399, 2398, 2698, 2699, 2724, 2723
2112, 2374, 2375, 2400, 2399, 2699, 2700, 2725, 2724
2113, 2376, 2377, 2402, 2401, 2701, 2702, 2727, 2726
2114, 2377, 2378, 2403, 2402, 2702, 2703, 2728, 2727
2115, 2378, 2379, 2404, 2403, 2703, 2704, 2729, 2728
2116, 2379, 2380, 2405, 2404, 2704, 2705, 2730, 2729
2117, 2380, 2381, 2406, 2405, 2705, 2706, 2731, 2730
2118, 2381, 2382, 2407, 2406, 2706, 2707, 2732, 2731
2119, 2382, 2383, 2408, 2407, 2707, 2708, 2733, 2732
2120, 2383, 2384, 2409, 2408, 2708, 2709, 2734, 2733
2121, 2384, 2385, 2410, 2409, 2709, 2710, 2735, 2734
2122, 2385, 2386, 2411, 2410, 2710, 2711, 2736, 2735
2123, 2386, 2387, 2412, 2411, 2711, 2712, 2737, 2736
2124, 2387, 2388, 2413, 2412, 2712, 2713, 2738, 2737
2125, 2388, 2389, 2414, 2413, 2713, 2714, 2739, 2738
2126, 2389, 2390, 2415, 2414, 2714, 2715, 2740, 2739
2127, 2390, 2391, 2416, 2415, 2715, 2716, 2741, 2740
2128, 2391, 2392, 2417, 2416, 2716, 2717, 2742, 2741
2129, 2392, 2393, 2418, 2417, 2717, 2718, 2743, 2742
2130, 2393, 2394, 2419, 2418, 2718, 2719, 2744, 2743
2131, 2394, 2395, 2420, 2419, 2719, 2720, 2745, 2744
2132, 2395, 2396, 2421, 2420, 2720, 2721, 2746, 2745
2133, 2396, 2397, 2422, 2421, 2721, 2722, 2747, 2746
2134, 2397, 2398, 2423, 2422, 2722, 2723, 2748, 2747
2135, 2398, 2399, 2424, 2423, 2723, 2724, 2749, 2748
2136, 2399, 2400, 2425, 2424, 2724, 2725, 2750, 2749
2137, 2401, 2402, 2427, 2426, 2726, 2727, 2752, 2751
2138, 2402, 2403, 2428, 2427, 2727, 2728, 2753, 2752
2139, 2403, 2404, 2429, 2428, 2728, 2729, 2754, 2753
2140, 2404, 2405, 2430, 2429, 2729, 2730, 2755, 2754
2141, 2405, 2406, 2431, 2430, 2730, 2731, 2756, 2755
2142, 2406, 2407, 2432, 2431, 2731, 2732, 2757, 2756
2143, 2407, 2408, 2433, 2432, 2732, 2733, 2758, 2757
2144, 2408, 2409, 2434, 2433, 2733, 2734, 2759, 2758
2145, 2409, 2410, 2435, 2434, 2734, 2735, 2760, 2759
2146, 2410, 2411, 2436, 2435, 2735, 2736, 2761, 2760
2147, 2411, 2412, 2437, 2436, 2736, 2737, 2762, 2761
2148, 2412, 2413, 2438, 2437, 2737, 2738, 2763, 2762
2149, 2413, 2414, 2439, 2438, 2738, 2739, 2764, 2763
2150, 2414, 2415, 2440, 2439, 2739, 2740, 2765, 2764
2151, 2415, 2416, 2441, 2440, 2740, 2741, 2766, 2765
2152, 2416, 2417, 2442, 2441, 2741, 2742, 2767, 2766
2153, 2417, 2418, 2443, 2442, 2742, 2743, 2768, 2767
2154, 2418, 2419, 2444, 2443, 2743, 2744, 2769, 2768
2155, 2419, 2420, 2445, 2444, 2744, 2745, 2770, 2769
2156, 2420, 2421, 2446, 2445, 2745, 2746, 2771, 2770
2157, 2421, 2422, 2447, 2446, 2746, 2747, 2772, 2771
2158, 2422, 2423, 2448, 2447, 2747, 2748, 2773, 2772
2159, 2423, 2424, 2449, 2448, 2748, 2749, 2774, 2773
2160, 2424, 2425, 2450, 2449, 2749, 2750, 2775, 2774
2161, 2426, 2427, 2452, 2451, 2751, 2752, 2777, 2776
2162, 2427, 2428, 2453, 2452, 2752, 2753, 2778, 2777
2163, 2428, 2429, 2454, 2453, 2753, 2754, 2779, 2778
2164, 2429, 2430, 2455, 2454, 2754, 2755, 2780, 2779
2165, 2430, 2431, 2456, 2455, 2755, 2756, 2781, 2780
2166, 2431, 2432, 2457, 2456, 2756, 2757, 2782, 2781
2167, 2432, 2433, 2458, 2457, 2757, 2758, 2783, 2782
2168, 2433, 2434, 2459, 2458, 2758, 2759, 2784, 2783
2169, 2434, 2435, 2460, 2459, 2759, 2760, 2785, 2784
2170, 2435, 2436, 2461, 2460, 2760, 2761, 2786, 2785
2171, 2436, 2437, 2462, 2461, 2761, 2762, 2787, 2786
2172, 2437, 2438, 2463, 2462, 2762, 2763, 2788, 2787
2173, 2438, 2439, 2464, 2463, 2763, 2764, 2789, 2788
2174, 2439, 2440, 2465, 2464, 2764, 2765, 2790, 2789
2175, 2440, 2441, 2466, 2465, 2765, 2766, 2791, 2790
2176, 2441, 2442, 2467, 2466, 2766, 2767, 2792, 2791
2177, 2442, 2443, 2468, 2467, 2767, 2768, 2793, 2792
2178, 2443, 2444, 2469, 2468, 2768, 2769, 2794, 2793
2179, 2444, 2445, 2470, 2469, 2769, 2770, 2795, 2794
2180, 2445, 2446, 2471, 2470, 2770, 2771, 2796, 2795
2181, 2446, 2447, 2472, 2471, 2771, 2772, 2797, 2796
2182, 2447, 2448, 2473, 2472, 2772, 2773, 2798, 2797
2183, 2448, 2449, 2474, 2473, 2773, 2774, 2799, 2798
2184, 2449, 2450, 2475, 2474, 2774, 2775, 2800, 2799
2185, 2451, 2452, 2477, 2476, 2776, 2777, 2802, 2801
2186, 2452, 2453, 2478, 2477, 2777, 2778, 2803, 2802
2187, 2453, 2454, 2479, 2478, 2778, 2779, 2804, 2803
2188, 2454, 2455, 2480, 2479, 2779, 2780, 2805, 2804
2189, 2455, 2456, 2481, 2480, 2780, 2781, 2806, 2805
2190, 2456, 2457, 2482, 2481, 2781, 2782, 2807, 2806
2191, 2457, 2458, 2483, 2482, 2782, 2783, 2808, 2807
2192, 2458, 2459, 2484, 2483, 2783, 2784, 2809, 2808
2193, 2459, 2460, 2485, 2484, 2784, 2785, 2810, 2809
2194, 2460, 2461, 2486, 2485, 2785, 2786, 2811, 2810
2195, 2461, 2462, 2487, 2486, 2786, 2787, 2812, 2811
2196, 2462, 2463, 2488, 2487, 2787, 2788, 2813, 2812
2197, 2463, 2464, 2489, 2488, 2788, 2789, 2814, 2813
2198, 2464, 2465, 2490, 2489, 2789, 2790, 2815, 2814
2199, 2465, 2466, 2491, 2490, 2790, 2791, 2816, 2815
2200, 2466, 2467, 2492, 2491, 2791, 2792, 2817, 2816
2201, 2467, 2468, 2493, 2492, 2792, 2793, 2818, 2817
2202, 2468, 2469, 2494, 2493, 2793, 2794, 2819, 2818
2203, 2469, 2470, 2495, 2494, 2794, 2795, 2820, 2819
2204, 2470, 2471, 2496, 2495, 2795, 2796, 2821, 2820
2205, 2471, 2472, 2497, 2496, 2796, 2797, 2822, 2821
2206, 2472, 2473, 2498, 2497, 2797, 2798, 2823, 2822
2207, 2473, 2474, 2499, 2498, 2798, 2799, 2824, 2823
2208, 2474, 2475, 2500, 2499, 2799, 2800, 2825, 2824
2209, 2476, 2477, 2502, 2501, 2801, 2802, 2827, 2826
2210, 2477, 2478, 2503, 2502, 2802, 2803, 2828, 2827
2211, 2478, 2479, 2504, 2503, 2803, 2804, 2829, 2828
2212, 2479, 2480, 2505, 2504, 2804, 2805, 2830, 2829
2213, 2480, 2481, 2506, 2505, 2805, 2806, 2831, 2830
2214, 2481, 2482, 2507, 2506, 2806, 2807, 2832, 2831
2215, 2482, 2483, 2508, 2507, 2807, 2808, 2833, 2832
2216, 2483, 2484, 2509, 2508, 2808, 2809, 2834, 2833
2217, 2484, 2485, 2510, 2509, 2809, 2810, 2835, 2834
2218, 2485, 2486, 2511, 2510, 2810, 2811, 2836, 2835
2219, 2486, 2487, 2512, 2511, 2811, 2812, 2837, 2836
2220, 2487, 2488, 2513, 2512, 2812, 2813, 2838, 2837
2221, 2488, 2489, 2514, 2513, 2813, 2814, 2839, 2838
2222, 2489, 2490, 2515, 2514, 2814, 2815, 2840, 2839
2223, 2490, 2491, 2516, 2515, 2815, 2816, 2841, 2840
2224, 2491, 2492, 2517, 2516, 2816, 2817, 2842, 2841
2225, 2492, 2493, 2518, 2517, 2817, 2818, 2843, 2842
2226, 2493, 2494, 2519, 2518, 2818, 2819, 2844, 2843
2227, 2494, 2495, 2520, 2519, 2819, 2820, 2845, 2844
2228, 2495, 2496, 2521, 2520, 2820, 2821, 2846, 2845
2229, 2496, 2497, 2522, 2521, 2821, 2822, 2847, 2846
2230, 2497, 2498, 2523, 2522, 2822, 2823, 2848, 2847
2231, 2498, 2499, 2524, 2523, 2823, 2824, 2849, 2848
2232, 2499, 2500, 2525, 2524, 2824, 2825, 2850, 2849
2233, 2501, 2502, 2527, 2526, 2826, 2827, 2852, 2851
2234, 2502, 2503, 2528, 2527, 2827, 2828, 2853, 2852
2235, 2503, 2504, 2529, 2528, 2828, 2829, 2854, 2853
2236, 2504, 2505, 2530, 2529, 2829, 2830, 2855, 2854
2237, 2505, 2506, 2531, 2530, 2830, 2831, 2856, 2855
2238, 2506, 2507, 2532, 2531, 2831, 2832, 2857, 2856
2239, 2507, 2508, 2533, 2532, 2832, 2833, 2858, 2857
2240, 2508, 2509, 2534, 2533, 2833, 2834, 2859, 2858
2241, 2509, 2510, 2535, 2534, 2834, 2835, 2860, 2859
2242, 2510, 2511, 2536, 2535, 2835, 2836, 2861, 2860
2243, 2511, 2512, 2537, 2536, 2836, 2837, 2862, 2861
2244, 2512, 2513, 2538, 2537, 2837, 2838, 2863, 2862
2245, 2513, 2514, 2539, 2538, 2838, 2839, 2864, 2863
2246, 2514, 2515, 2540, 2539, 2839, 2840, 2865, 2864
2247, 2515, 2516, 2541, 2540, 2840, 2841, 2866, 2865
2248, 2516, 2517, 2542, 2541, 2841, 2842, 2867, 2866
2249, 2517, 2518, 2543, 2542, 2842, 2843, 2868, 2867
2250, 2518, 2519, 2544, 2543, 2843, 2844, 2869, 2868
2251, 2519, 2520, 2545, 2544, 2844, 2845, 2870, 2869
2252, 2520, 2521, 2546, 2545, 2845, 2846, 2871, 2870
2253, 2521, 2522, 2547, 2546, 2846, 2847, 2872, 2871
2254, 2522, 2523, 2548, 2547, 2847, 2848, 2873, 2872
2255, 2523, 2524, 2549, 2548, 2848, 2849, 2874, 2873
2256, 2524, 2525, 2550, 2549, 2849, 2850, 2875, 2874
2257, 2526, 2527, 2552, 2551, 2851, 2852, 2877, 2876
2258, 2527, 2528, 2553, 2552, 2852, 2853, 2878, 2877
2259, 2528, 2529, 2554, 2553, 2853, 2854, 2879, 2878
2260, 2529, 2530, 2555, 2554, 2854, 2855, 2880, 2879
2261, 2530, 2531, 2556, 2555, 2855, 2856, 2881, 2880
2262, 2531, 2532, 2557, 2556, 2856, 2857, 2882, 2881
2263, 2532, 2533, 2558, 2557, 2857, 2858, 2883, 2882
2264, 2533, 2534, 2559, 2558, 2858, 2859, 2884, 2883
2265, 2534, 2535, 2560, 2559, 2859, 2860, 2885, 2884
2266, 2535, 2536, 2561, 2560, 2860, 2861, 2886, 2885
2267, 2536, 2537, 2562, 2561, 2861, 2862, 2887, 2886
2268, 2537, 2538, 2563, 2562, 2862, 2863, 2888, 2887
2269, 2538, 2539, 2564, 2563, 2863, 2864, 2889, 2888
2270, 2539, 2540, 2565, 2564, 2864, 2865, 2890, 2889
2271, 2540, 2541, 2566, 2565, 2865, 2866, 2891, 2890
2272, 2541, 2542, 2567, 2566, 2866, 2867, 2892, 2891
2273, 2542, 2543, 2568, 2567, 2867, 2868, 2893, 2892
2274, 2543, 2544, 2569, 2568, 2868, 2869, 2894, 2893
2275, 2544, 2545, 2570, 2569, 2869, 2870, 2895, 2894
2276, 2545, 2546, 2571, 2570, 2870, 2871, 2896, 2895
2277, 2546, 2547, 2572, 2571, 2871, 2872, 2897, 2896
2278, 2547, 2548, 2573, 2572, 2872, 2873, 2898, 2897
2279, 2548, 2549, 2574, 2573, 2873, 2874, 2899, 2898
2280, 2549, 2550, 2575, 2574, 2874, 2875, 2900, 2899
2281, 2551, 2552, 2577, 2576, 2876, 2877, 2902, 2901
2282, 2552, 2553, 2578, 2577, 2877, 2878, 2903, 2902
2283, 2553, 2554, 2579, 2578, 2878, 2879, 2904, 2903
2284, 2554, 2555, 2580, 2579, 2879, 2880, 2905, 2904
2285, 2555, 2556, 2581, 2580, 2880, 2881, 2906, 2905
2286, 2556, 2557, 2582, 2581, 2881, 2882, 2907, 2906
2287, 2557, 2558, 2583, 2582, 2882, 2883, 2908, 2907
2288, 2558, 2559, 2584, 2583, 2883, 2884, 2909, 2908
2289, 2559, 2560, 2585, 2584, 2884, 2885, 2910, 2909
2290, 2560, 2561, 2586, 2585, 2885, 2886, 2911, 2910
2291, 2561, 2562, 2587, 2586, 2886, 2887, 2912, 2911
2292, 2562, 2563, 2588, 2587, 2887, 2888, 2913, 2912
2293, 2563, 2564, 2589, 2588, 2888, 2889, 2914, 2913
2294, 2564, 2565, 2590, 2589, 2889, 2890, 2915, 2914
2295, 2565, 2566, 2591, 2590, 2890, 2891, 2916, 2915
2296, 2566, 2567, 2592, 2591, 2891, 2892, 2917, 2916
2297, 2567, 2568, 2593, 2592, 2892, 2893, 2918, 2917
2298, 2568, 2569, 2594, 2593, 2893, 2894, 2919, 2918
2299, 2569, 2570, 2595, 2594, 2894, 2895, 2920, 2919
2300, 2570, 2571, 2596, 2595, 2895, 2896, 2921, 2920
2301, 2571, 2572, 2597, 2596, 2896, 2897, 2922, 2921
2302, 2572, 2573, 2598, 2597, 2897, 2898, 2923, 2922
2303, 2573, 2574, 2599, 2598, 2898, 2899, 2924, 2923
2304, 2574, 2575, 2600, 2599, 2899, 2900, 2925, 2924
2305, 2601, 2602, 2627, 2626, 2926, 2927, 2952, 2951
2306, 2602, 2603, 2628, 2627, 2927, 2928, 2953, 2952
2307, 2603, 2604, 2629, 2628, 2928, 2929, 2954, 2953
2308, 2604, 2605, 2630, 2629, 2929, 2930, 2955, 2954
2309, 2605, 2606, 2631, 2630, 2930, 2931, 2956, 2955
2310, 2606, 2607, 2632, 2631, 2931, 2932, 2957, 2956
2311, 2607, 2608, 2633, 2632, 2932, 2933, 2958, 2957
2312, 2608, 2609, 2634, 2633, 2933, 2934, 2959, 2958
2313, 2609, 2610, 2635, 2634, 2934, 2935, 2960, 2959
2314, 2610, 2611, 2636, 2635, 2935, 2936, 2961, 2960
2315, 2611, 2612, 2637, 2636, 2936, 2937, 2962, 2961
2316, 2612, 2613, 2638, 2637, 2937, 2938, 2963, 2962
2317, 2613, 2614, 2639, 2638, 2938, 2939, 2964, 2963
2318, 2614, 2615, 2640, 2639, 2939, 2940, 2965, 2964
2319, 2615, 2616, 2641, 2640, 2940, 2941, 2966, 2965
2320, 2616, 2617, 2642, 2641, 2941, 2942, 2967, 2966
2321, 2617, 2618, 2643, 2642, 2942, 2943, 2968, 2967
2322, 2618, 2619, 2644, 2643, 2943, 2944, 2969, 2968
2323, 2619, 2620, 2645, 2644, 2944, 2945, 2970, 2969
2324, 2620, 2621, 2646, 2645, 2945, 2946, 2971, 2970
2325, 2621, 2622, 2647, 2646, 2946, 2947, 2972, 2971
2326, 2622, 2623, 2648, 2647, 2947, 2948, 2973, 2972
2327, 2623, 2624, 2649, 2648, 2948, 2949, 2974, 2973
2328, 2624, 2625, 2650, 2649, 2949, 2950, 2975, 2974
2329, 2626, 2627, 2652, 2651, 2951, 2952, 2977, 2976
2330, 2627, 2628, 2653, 2652, 2952, 2953, 2978, 2977
2331, 2628, 2629, 2654, 2653, 2953, 2954, 2979, 2978
2332, 2629, 2630, 2655, 2654, 2954, 2955, 2980, 2979
2333, 2630, 2631, 2656, 2655, 2955, 2956, 2981, 2980
2334, 2631, 2632, 2657, 2656, 2956, 2957, 2982, 2981
2335, 2632, 2633, 2658, 2657, 2957, 2958, 2983, 2982
2336, 2633, 2634, 2659, 2658, 2958, 2959, 2984, 2983
2337, 2634, 2635, 2660, 2659, 2959, 2960, 2985, 2984
2338, 2635, 2636, 2661, 2660, 2960, 2961, 2986, 2985
2339, 2636, 2637, 2662, 2661, 2961, 2962, 2987, 2986
2340, 2637, 2638, 2663, 2662, 2962, 2963, 2988, 2987
2341, 2638, 2639, 2664, 2663, 2963, 2964, 2989, 2988
2342, 2639, 2640, 2665, 2664, 2964, 2965, 2990, 2989
2343, 2640, 2641, 2666, 2665, 2965, 2966, 2991, 2990
2344, 2641, 2642, 2667, 2666, 2966, 2967, 2992, 2991
2345, 2642, 2643, 2668, 2667, 2967, 2968, 2993, 2992
2346, 2643, 2644, 2669, 2668, 2968, 2969, 2994, 2993
2347, 2644, 2645, 2670, 2669, 2969, 2970, 2995, 2994
2348, 2645, 2646, 2671, 2670, 2970, 2971, 2996, 2995
2349, 2646, 2647, 2672, 2671, 2971, 2972, 2997, 2996
2350, 2647, 2648, 2673, 2672, 2972, 2973, 2998, 2997
2351, 2648, 2649, 2674, 2673, 2973, 2974, 2999, 2998
2352, 2649, 2650, 2675, 2674, 2974, 2975, 3000, 2999
2353, 2651, 2652, 2677, 2676, 2976, 2977, 3002, 3001
2354, 2652, 2653, 2678, 2677, 2977, 2978, 3003, 3002
2355, 2653, 2654, 2679, 2678, 2978, 2979, 3004, 3003
2356, 2654, 2655, 2680, 2679, 2979, 2980, 3005, 3004
2357, 2655, 2656, 2681, 2680, 2980, 2981, 3006, 3005
2358, 2656, 2657, 2682, 2681, 2981, 2982, 3007, 3006
2359, 2657, 2658, 2683, 2682, 2982, 2983, 3008, 3007
2360, 2658, 2659, 2684, 2683, 2983, 2984, 3009, 3008
2361, 2659, 2660, 2685, 2684, 2984, 2985, 3010, 3009
2362, 2660, 2661, 2686, 2685, 2985, 2986, 3011, 3010
2363, 2661, 2662, 2687, 2686, 2986, 2987, 3012, 3011
2364, 2662, 2663, 2688, 2687, 2987, 2988, 3013, 3012
2365, 2663, 2664, 2689, 2688, 2988, 2989, 3014, 3013
2366, 2664, 2665, 2690, 2689, 2989, 2990, 3015, 3014
2367, 2665, 2666, 2691, 2690, 2990, 2991, 3016, 3015
2368, 2666, 2667, 2692, 2691, 2991, 2992, 3017, 3016
2369, 2667, 2668, 2693, 2692, 2992, 2993, 3018, 3017
2370, 2668, 2669, 2694, 2693, 2993, 2994, 3019, 3018
2371, 2669, 2670, 2695, 2694, 2994, 2995, 3020, 3019
2372, 2670, 2671, 2696, 2695, 2995, 2996, 3021, 3020
2373, 2671, 2672, 2697, 2696, 2996, 2997, 3022, 3021
2374, 2672, 2673, 2698, 2697, 2997, 2998, 3023, 3022
2375, 2673, 2674, 2699, 2698, 2998, 2999, 3024, 3023
2376, 2674, 2675, 2700, 2699, 2999, 3000, 3025, 3024
2377, 2676, 2677, 2702, 2701, 3001, 3002, 3027, 3026
2378, 2677, 2678, 2703, 2702, 3002, 3003, 3028, 3027
2379, 2678, 2679, 2704, 2703, 3003, 3004, 3029, 3028
2380, 2679, 2680, 2705, 2704, 3004, 3005, 3030, 3029
2381, 2680, 2681, 2706, 2705, 3005, 3006, 3031, 3030
2382, 2681, 2682, 2707, 2706, 3006, 3007, 3032, 3031
2383, 2682, 2683, 2708, 2707, 3007, 3008, 3033, 3032
2384, 2683, 2684, 2709, 2708, 3008, 3009, 3034, 3033
2385, 2684, 2685, 2710, 2709, 3009, 3010, 3035, 3034
2386, 2685, 2686, 2711, 2710, 3010, 3011, 3036, 3035
2387, 2686, 2687, 2712, 2711, 3011, 3012, 3037, 3036
2388, 2687, 2688, 2713, 2712, 3012, 3013, 3038, 3037
2389, 2688, 2689, 2714, 2713, 3013, 3014, 3039, 3038
2390, 2689, 2690, 2715, 2714, 3014, 3015, 3040, 3039
2391, 2690, 2691, 2716, 2715, 3015, 3016, 3041, 3040
2392, 2691, 2692, 2717, 2716, 3016, 3017, 3042, 3041
2393, 2692, 2693, 2718, 2717, 3017, 3018, 3043, 3042
2394, 2693, 2694, 2719, 2718, 3018, 3019, 3044, 3043
2395, 2694, 2695, 2720, 2719, 3019, 3020, 3045, 3044
2396, 2695, 2696, 2721, 2720, 3020, 3021, 3046, 3045
2397, 2696, 2697, 2722, 2721, 3021, 3022, 3047, 3046
2398, 2697, 2698, 2723, 2722, 3022, 3023, 3048, 3047
2399, 2698, 2699, 2724, 2723, 3023, 3024, 3049, 3048
2400, 2699, 2700, 2725, 2724, 3024, 3025, 3050, 3049
2401, 2701, 2702, 2727, 2726, 3026, 3027, 3052, 3051
2402, 2702, 2703, 2728, 2727, 3027, 3028, 3053, 3052
2403, 2703, 2704, 2729, 2728, 3028, 3029, 3054, 3053
2404, 2704, 2705, 2730, 2729, 3029, 3030, 3055, 3054
2405, 2705, 2706, 2731, 2730, 3030, 3031, 3056, 3055
2406, 2706, 2707, 2732, 2731, 3031, 3032, 3057, 3056
2407, 2707, 2708, 2733, 2732, 3032, 3033, 3058, 3057
2408, 2708, 2709, 2734, 2733, 3033, 3034, 3059, 3058
2409, 2709, 2710, 2735, 2734, 3034, 3035, 3060, 3059
2410, 2710, 2711, 2736, 2735, 3035, 3036, 3061, 3060
2411, 2711, 2712, 2737, 2736, 3036, 3037, 3062, 3061
2412, 2712, 2713, 2738, 2737, 3037, 3038, 3063, 3062
2413, 2713, 2714, 2739, 2738, 3038, 3039, 3064, 3063
2414, 2714, 2715, 2740, 2739, 3039, 3040, 3065, 3064
2415, 2715, 2716, 2741, 2740, 3040, 3041, 3066, 3065
2416, 2716, 2717, 2742, 2741, 3041, 3042, 3067, 3066
2417, 2717, 2718, 2743, 2742, 3042, 3043, 3068, 3067
2418, 2718, 2719, 2744, 2743, 3043, 3044, 3069, 3068
2419, 2719, 2720, 2745, 2744, 3044, 3045, 3070, 3069
2420, 2720, 2721, 2746, 2745, 3045, 3046, 3071, 3070
2421, 2721, 2722, 2747, 2746, 3046, 3047, 3072, 3071
2422, 2722, 2723, 2748, 2747, 3047, 3048, 3073, 3072
2423, 2723, 2724, 2749, 2748, 3048, 3049, 3074, 3073
2424, 2724, 2725, 2750, 2749, 3049, 3050, 3075, 3074
2425, 2726, 2727, 2752, 2751, 3051, 3052, 3077, 3076
2426, 2727, 2728, 2753, 2752, 3052, 3053, 3078, 3077
2427, 2728, 2729, 2754, 2753, 3053, 3054, 3079, 3078
2428, 2729, 2730, 2755, 2754, 3054, 3055, 3080, 3079
2429, 2730, 2731, 2756, 2755, 3055, 3056, 3081, 3080
2430, 2731, 2732, 2757, 2756, 3056, 3057, 3082, 3081
2431, 2732, 2733, 2758, 2757, 3057, 3058, 3083, 3082
2432, 2733, 2734, 2759, 2758, 3058, 3059, 3084, 3083
2433, 2734, 2735, 2760, 2759, 3059, 3060, 3085, 3084
2434, 2735, 2736, 2761, 2760, 3060, 3061, 3086, 3085
2435, 2736, 2737, 2762, 2761, 3061, 3062, 3087, 3086
2436, 2737, 2738, 2763, 2762, 3062, 3063, 3088, 3087
2437, 2738, 2739, 2764, 2763, 3063, 3064, 3089, 3088
2438, 2739, 2740, 2765, 2764, 3064, 3065, 3090, 3089
2439, 2740, 2741, 2766, 2765, 3065, 3066, 3091, 3090
2440, 2741, 2742, 2767, 2766, 3066, 3067, 3092, 3091
2441, 2742, 2743, 2768, 2767, 3067, 3068, 3093, 3092
2442, 2743, 2744, 2769, 2768, 3068, 3069, 3094, 3093
2443, 2744, 2745, 2770, 2769, 3069, 3070, 3095, 3094
2444, 2745, 2746, 2771, 2770, 3070, 3071, 3096, 3095
2445, 2746, 2747, 2772, 2771, 3071, 3072, 3097, 3096
2446, 2747, 2748, 2773, 2772, 3072, 3073, 3098, 3097
2447, 2748, 2749, 2774, 2773, 3073, 3074, 3099, 3098
2448, 2749, 2750, 2775, 2774, 3074, 3075, 3100, 3099
2449, 2751, 2752, 2777, 2776, 3076, 3077, 3102, 3101
2450, 2752, 2753, 2778, 2777, 3077, 3078, 3103, 3102
2451, 2753, 2754, 2779, 2778, 3078, 3079, 3104, 3103
2452, 2754, 2755, 2780, 2779, 3079, 3080, 3105, 3104
2453, 2755, 2756, 2781, 2780, 3080, 3081, 3106, 3105
2454, 2756, 2757, 2782, 2781, 3081, 3082, 3107, 3106
2455, 2757, 2758, 2783, 2782, 3082, 3083, 3108, 3107
2456, 2758, 2759, 2784, 2783, 3083, 3084, 3109, 3108
2457, 2759, 2760, 2785, 2784, 3084, 3085, 3110, 3109
2458, 2760, 2761, 2786, 2785, 3085, 3086, 3111, 3110
2459, 2761, 2762, 2787, 2786, 3086, 3087, 3112, 3111
2460, 2762, 2763, 2788, 2787, 3087, 3088, 3113, 3112
2461, 2763, 2764, 2789, 2788, 3088, 3089, 3114, 3113
2462, 2764, 2765, 2790, 2789, 3089, 3090, 3115, 3114
2463, 2765, 2766, 2791, 2790, 3090, 3091, 3116, 3115
2464, 2766, 2767, 2792, 2791, 3091, 3092, 3117, 3116
2465, 2767, 2768, 2793, 2792, 3092, 3093, 3118, 3117
2466, 2768, 2769, 2794, 2793, 3093, 3094, 3119, 3118
2467, 2769, 2770, 2795, 2794, 3094, 3095, 3120, 3119
2468, 2770, 2771, 2796, 2795, 3095, 3096, 3121, 3120
2469, 2771, 2772, 2797, 2796, 3096, 3097, 3122, 3121
2470, 2772, 2773, 2798, 2797, 3097, 3098, 3123, 3122
2471, 2773, 2774, 2799, 2798, 3098, 3099, 3124, 3123
2472, 2774, 2775, 2800, 2799, 3099, 3100, 3125, 3124
2473, 2776, 2777, 2802, 2801, 3101, 3102, 3127, 3126
2474, 2777, 2778, 2803, 2802, 3102, 3103, 3128, 3127
2475, 2778, 2779, 2804, 2803, 3103, 3104, 3129, 3128
2476, 2779, 2780, 2805, 2804, 3104, 3105, 3130, 3129
2477, 2780, 2781, 2806, 2805, 3105, 3106, 3131, 3130
2478, 2781, 2782, 2807, 2806, 3106, 3107, 3132, 3131
2479, 2782, 2783, 2808, 2807, 3107, 3108, 3133, 3132
2480, 2783, 2784, 2809, 2808, 3108, 3109, 3134, 3133
2481, 2784, 2785, 2810, 2809, 3109, 3110, 3135, 3134
2482, 2785, 2786, 2811, 2810, 3110, 3111, 3136, 3135
2483, 2786, 2787, 2812, 2811, 3111, 3112, 3137, 3136
2484, 2787, 2788, 2813, 2812, 3112, 3113, 3138, 3137
2485, 2788, 2789, 2814, 2813, 3113, 3114, 3139, 3138
2486, 2789, 2790, 2815, 2814, 3114, 3115, 3140, 3139
2487, 2790, 2791, 2816, 2815, 3115, 3116, 3141, 3140
2488, 2791, 2792, 2817, 2816, 3116, 3117, 3142, 3141
2489, 2792, 2793, 2818, 2817, 3117, 3118, 3143, 3142
2490, 2793, 2794, 2819, 2818, 3118, 3119, 3144, 3143
2491, 2794, 2795, 2820, 2819, 3119, 3120, 3145, 3144
2492, 2795, 2796, 2821, 2820, 3120, 3121, 3146, 3145
2493, 2796, 2797, 2822, 2821, 3121, 3122, 3147, 3146
2494, 2797, 2798, 2823, 2822, 3122, 3123, 3148, 3147
2495, 2798, 2799, 2824, 2823, 3123, 3124, 3149, 3148
2496, 2799, 2800, 2825, 2824, 3124, 3125, 3150, 3149
2497, 2801, 2802, 2827, 2826, 3126, 3127, 3152, 3151
2498, 2802, 2803, 2828, 2827, 3127, 3128, 3153, 3152
2499, 2803, 2804, 2829, 2828, 3128, 3129, 3154, 3153
2500, 2804, 2805, 2830, 2829, 3129, 3130, 3155, 3154
2501, 2805, 2806, 2831, 2830, 3130, 3131, 3156, 3155
2502, 2806, 2807, 2832, 2831, 3131, 3132, 3157, 3156
2503, 2807, 2808, 2833, 2832, 3132, 3133, 3158, 3157
2504, 2808, 2809, 2834, 2833, 3133, 3134, 3159, 3158
2505, 2809, 2810, 2835, 2834, 3134, 3135, 3160, 3159
2506, 2810, 2811, 2836, 2835, 3135, 3136, 3161, 3160
2507, 2811, 2812, 2837, 2836, 3136, 3137, 3162, 3161
2508, 2812, 2813, 2838, 2837, 3137, 3138, 3163, 3162
2509, 2813, 2814, 2839, 2838, 3138, 3139, 3164, 3163
2510, 2814, 2815, 2840, 2839, 3139, 3140, 3165, 3164
2511, 2815, 2816, 2841, 2840, 3140, 3141, 3166, 3165
2512, 2816, 2817, 2842, 2841, 3141, 3142, 3167, 3166
2513, 2817, 2818, 2843, 2842, 3142, 3143, 3168, 3167
2514, 2818, 2819, 2844, 2843, 3143, 3144, 3169, 3168
2515, 2819, 2820, 2845, 2844, 3144, 3145, 3170, 3169
2516, 2820, 2821, 2846, 2845, 3145, 3146, 3171, 3170
2517, 2821, 2822, 2847, 2846, 3146, 3147, 3172, 3171
2518, 2822, 2823, 2848, 2847, 3147, 3148, 3173, 3172
2519, 2823, 2824, 2849, 2848, 3148, 3149, 3174, 3173
2520, 2824, 2825, 2850, 2849, 3149, 3150, 3175, 3174
2521, 2826, 2827, 2852, 2851, 3151, 3152, 3177, 3176
2522, 2827, 2828, 2853, 2852, 3152, 3153, 3178, 3177
2523, 2828, 2829, 2854, 2853, 3153, 3154, 3179, 3178
2524, 2829, 2830, 2855, 2854, 3154, 3155, 3180, 3179
2525, 2830, 2831, 2856, 2855, 3155, 3156, 3181, 3180
2526, 2831, 2832, 2857, 2856, 3156, 3157, 3182, 3181
2527, 2832, 2833, 2858, 2857, 3157, 3158, 3183, 3182
2528, 2833, 2834, 2859, 2858, 3158, 3159, 3184, 3183
2529, 2834, 2835, 2860, 2859, 3159, 3160, 3185, 3184
2530, 2835, 2836, 2861, 2860, 3160, 3161, 3186, 3185
2531, 2836, 2837, 2862, 2861, 3161, 3162, 3187, 3186
2532, 2837, 2838, 2863, 2862, 3162, 3163, 3188, 3187
2533, 2838, 2839, 2864, 2863, 3163, 3164, 3189, 3188
2534, 2839, 2840, 2865, 2864, 3164, 3165, 3190, 3189
2535, 2840, 2841, 2866, 2865, 3165, 3166, 3191, 3190
2536, 2841, 2842, 2867, 2866, 3166, 3167, 3192, 3191
2537, 2842, 2843, 2868, 2867, 3167, 3168, 3193, 3192
2538, 2843, 2844, 2869, 2868, 3168, 3169, 3194, 3193
2539, 2844, 2845, 2870, 2869, 3169, 3170, 3195, 3194
2540, 2845, 2846, 2871, 2870, 3170, 3171, 3196, 3195
2541, 2846, 2847, 2872, 2871, 3171, 3172, 3197, 3196
2542, 2847, 2848, 2873, 2872, 3172, 3173, 3198, 3197
2543, 2848, 2849, 2874, 2873, 3173, 3174, 3199, 3198
2544, 2849, 2850, 2875, 2874, 3174, 3175, 3200, 3199
2545, 2851, 2852, 2877, 2876, 3176, 3177, 3202, 3201
2546, 2852, 2853, 2878, 2877, 3177, 3178, 3203, 3202
2547, 2853, 2854, 2879, 2878, 3178, 3179, 3204, 3203
2548, 2854, 2855, 2880, 2879, 3179, 3180, 3205, 3204
2549, 2855, 2856, 2881, 2880, 3180, 3181, 3206, 3205
2550, 2856, 2857, 2882, 2881, 3181, 3182, 3207, 3206
2551, 2857, 2858, 2883, 2882, 3182, 3183, 3208, 3207
2552, 2858, 2859, 2884, 2883, 3183, 3184, 3209, 3208
2553, 2859, 2860, 2885, 2884, 3184, 3185, 3210, 3209
2554, 2860, 2861, 2886, 2885, 3185, 3186, 3211, 3210
2555, 2861, 2862, 2887, 2886, 3186, 3187, 3212, 3211
2556, 2862, 2863, 2888, 2887, 3187, 3188, 3213, 3212
2557, 2863, 2864, 2889, 2888, 3188, 3189, 3214, 3213
2558, 2864, 2865, 2890, 2889, 3189, 3190, 3215, 3214
2559, 2865, 2866, 2891, 2890, 3190, 3191, 3216, 3215
2560, 2866, 2867, 2892, 2891, 3191, 3192, 3217, 3216
2561, 2867, 2868, 2893, 2892, 3192, 3193, 3218, 3217
2562, 2868, 2869, 2894, 2893, 3193, 3194, 3219, 3218
2563, 2869, 2870, 2895, 2894, 3194, 3195, 3220, 3219
2564, 2870, 2871, 2896, 2895, 3195, 3196, 3221, 3220
2565, 2871, 2872, 2897, 2896, 3196, 3197, 3222, 3221
2566, 2872, 2873, 2898, 2897, 3197, 3198, 3223, 3222
2567, 2873, 2874, 2899, 2898, 3198, 3199, 3224, 3223
2568, 2874, 2875, 2900, 2899, 3199, 3200, 3225, 3224
2569, 2876, 2877, 2902, 2901, 3201, 3202, 3227, 3226
2570, 2877, 2878, 2903, 2902, 3202, 3203, 3228, 3227
2571, 2878, 2879, 2904, 2903, 3203, 3204, 3229, 3228
2572, 2879, 2880, 2905, 2904, 3204, 3205, 3230, 3229
2573, 2880, 2881, 2906, 2905, 3205, 3206, 3231, 3230
2574, 2881, 2882, 2907, 2906, 3206, 3207, 3232, 3231
2575, 2882, 2883, 2908, 2907, 3207, 3208, 3233, 3232
2576, 2883, 2884, 2909, 2908, 3208, 3209, 3234, 3233
2577, 2884, 2885, 2910, 2909, 3209, 3210, 3235, 3234
2578, 2885, 2886, 2911, 2910, 3210, 3211, 3236, 3235
2579, 2886, 2887, 2912, 2911, 3211, 3212, 3237, 3236
2580, 2887, 2888, 2913, 2912, 3212, 3213, 3238, 3237
2581, 2888, 2889, 2914, 2913, 3213, 3214, 3239, 3238
2582, 2889, 2890, 2915, 2914, 3214, 3215, 3240, 3239
2583, 2890, 2891, 2916, 2915, 3215, 3216, 3241, 3240
2584, 2891, 2892, 2917, 2916, 3216, 3217, 3242, 3241
2585, 2892, 2893, 2918, 2917, 3217, 3218, 3243, 3242
2586, 2893, 2894, 2919, 2918, 3218, 3219, 3244, 3243
2587, 2894, 2895, 2920, 2919, 3219, 3220, 3245, 3244
2588, 2895, 2896, 2921, 2920, 3220, 3221, 3246, 3245
2589, 2896, 2897, 2922, 2921, 3221, 3222, 3247, 3246
2590, 2897, 2898, 2923, 2922, 3222, 3223, 3248, 3247
2591, 2898, 2899, 2924, 2923, 3223, 3224, 3249, 3248
2592, 2899, 2900, 2925, 2924, 3224, 3225, 3250, 3249
*ELSET, ELSET=LAY1, GENERATE
1, 288, 1
*ELSET, ELSET=LAY2, GENERATE
289, 576, 1
*ELSET, ELSET=LAY3, GENERATE
577, 864, 1
*ELSET, ELSET=LAY4, GENERATE
865, 1152, 1
*ELSET, ELSET=LAY5, GENERATE
1153, 1440, 1
*ELSET, ELSET=LAY6, GENERATE
1441, 1728, 1
*ELSET, ELSET=LAY7, GENERATE
1729, 2016, 1
*ELSET, ELSET=LAY8, GENERATE
2017, 2304, 1
*ELSET, ELSET=LAY9, GENERATE
2305, 2592, 1
*NSET, NSET=NROOT
1, 26, 51, 76, 101, 126, 151, 176, 201, 226, 251, 276
301, 326, 351, 376, 401, 426, 451, 476, 501, 526, 551, 576
601, 626, 651, 676, 701, 726, 751, 776, 801, 826, 851, 876
901, 926, 951, 976, 1001, 1026, 1051, 1076, 1101, 1126, 1151, 1176
1201, 1226, 1251, 1276, 1301, 1326, 1351, 1376, 1401, 1426, 1451, 1476
1501, 1526, 1551, 1576, 1601, 1626, 1651, 1676, 1701, 1726, 1751, 1776
1801, 1826, 1851, 1876, 1901, 1926, 1951, 1976, 2001, 2026, 2051, 2076
2101, 2126, 2151, 2176, 2201, 2226, 2251, 2276, 2301, 2326, 2351, 2376
2401, 2426, 2451, 2476, 2501, 2526, 2551, 2576, 2601, 2626, 2651, 2676
2701, 2726, 2751, 2776, 2801, 2826, 2851, 2876, 2901, 2926, 2951, 2976
3001, 3026, 3051, 3076, 3101, 3126, 3151, 3176, 3201, 3226
*MATERIAL, NAME=GE
*ELASTIC, TYPE=ENGINEERING CONSTANTS
1.280000e+11, 1.100000e+10, 1.100000e+10, 0.25, 0.25, 0.25, 4.480000e+09, 4.480000e+09,
1.530000e+09
*DENSITY
1500,
*MATERIAL, NAME=AL
*ELASTIC, TYPE=ENGINEERING CONSTANTS
6.890000e+10, 6.890000e+10, 6.890000e+10, 0.3, 0.3, 0.3, 2.650000e+10, 2.650000e+10,
2.650000e+10
*DENSITY
2770,
*ORIENTATION, NAME=OR1, SYSTEM=RECTANGULAR
1.0, 0.0, 0.0, 0.0, 1.0, 0.0
3, 0
*SOLID SECTION, ELSET=LAY1, MATERIAL=GE, ORIENTATION=OR1
*ORIENTATION, NAME=OR2, SYSTEM=RECTANGULAR
1.0, 0.0, 0.0, 0.0, 1.0, 0.0
3, 0
*SOLID SECTION, ELSET=LAY2, MATERIAL=GE, ORIENTATION=OR2
*ORIENTATION, NAME=OR3, SYSTEM=RECTANGULAR
1.0, 0.0, 0.0, 0.0, 1.0, 0.0
3, 0
*SOLID SECTION, ELSET=LAY3, MATERIAL=GE, ORIENTATION=OR3
*ORIENTATION, NAME=OR4, SYSTEM=RECTANGULAR
1.0, 0.0, 0.0, 0.0, 1.0, 0.0
3, 0
*SOLID SECTION, ELSET=LAY4, MATERIAL=GE, ORIENTATION=OR4
*ORIENTATION, NAME=OR5, SYSTEM=RECTANGULAR
1.0, 0.0, 0.0, 0.0, 1.0, 0.0
3, 0
*SOLID SECTION, ELSET=LAY5, MATERIAL=AL, ORIENTATION=OR5
*ORIENTATION, NAME=OR6, SYSTEM=RECTANGULAR
1.0, 0.0, 0.0, 0.0, 1.0, 0.0
3, 0
*SOLID SECTION, ELSET=LAY6, MATERIAL=GE, ORIENTATION=OR6
*ORIENTATION, NAME=OR7, SYSTEM=RECTANGULAR
1.0, 0.0, 0.0, 0.0, 1.0, 0.0
3, 0
*SOLID SECTION, ELSET=LAY7, MATERIAL=GE, ORIENTATION=OR7
*ORIENTATION, NAME=OR8, SYSTEM=RECTANGULAR
1.0, 0.0, 0.0, 0.0, 1.0, 0.0
3, 0
*SOLID SECTION, ELSET=LAY8, MATERIAL=GE, ORIENTATION=OR8
*ORIENTATION, NAME=OR9, SYSTEM=RECTANGULAR
1.0, 0.0, 0.0, 0.0, 1.0, 0.0
3, 0
*SOLID SECTION, ELSET=LAY9, MATERIAL=GE, ORIENTATION=OR9
*BOUNDARY
NROOT, 1, 3
*STEP, NAME=MODES
*FREQUENCY
8,
*END STEP
