*HEADING
Nayak Ex.4 cantilever pm45x2_Al -- conventional Abaqus composite S4 (FSDT) frequency
*NODE
1, 0.00000000, 0.00000000, 0.0
2, 0.00633333, 0.00000000, 0.0
3, 0.01266667, 0.00000000, 0.0
4, 0.01900000, 0.00000000, 0.0
5, 0.02533333, 0.00000000, 0.0
6, 0.03166667, 0.00000000, 0.0
7, 0.03800000, 0.00000000, 0.0
8, 0.04433333, 0.00000000, 0.0
9, 0.05066667, 0.00000000, 0.0
10, 0.05700000, 0.00000000, 0.0
11, 0.06333333, 0.00000000, 0.0
12, 0.06966667, 0.00000000, 0.0
13, 0.07600000, 0.00000000, 0.0
14, 0.08233333, 0.00000000, 0.0
15, 0.08866667, 0.00000000, 0.0
16, 0.09500000, 0.00000000, 0.0
17, 0.10133333, 0.00000000, 0.0
18, 0.10766667, 0.00000000, 0.0
19, 0.11400000, 0.00000000, 0.0
20, 0.12033333, 0.00000000, 0.0
21, 0.12666667, 0.00000000, 0.0
22, 0.13300000, 0.00000000, 0.0
23, 0.13933333, 0.00000000, 0.0
24, 0.14566667, 0.00000000, 0.0
25, 0.15200000, 0.00000000, 0.0
26, 0.00000000, 0.00633333, 0.0
27, 0.00633333, 0.00633333, 0.0
28, 0.01266667, 0.00633333, 0.0
29, 0.01900000, 0.00633333, 0.0
30, 0.02533333, 0.00633333, 0.0
31, 0.03166667, 0.00633333, 0.0
32, 0.03800000, 0.00633333, 0.0
33, 0.04433333, 0.00633333, 0.0
34, 0.05066667, 0.00633333, 0.0
35, 0.05700000, 0.00633333, 0.0
36, 0.06333333, 0.00633333, 0.0
37, 0.06966667, 0.00633333, 0.0
38, 0.07600000, 0.00633333, 0.0
39, 0.08233333, 0.00633333, 0.0
40, 0.08866667, 0.00633333, 0.0
41, 0.09500000, 0.00633333, 0.0
42, 0.10133333, 0.00633333, 0.0
43, 0.10766667, 0.00633333, 0.0
44, 0.11400000, 0.00633333, 0.0
45, 0.12033333, 0.00633333, 0.0
46, 0.12666667, 0.00633333, 0.0
47, 0.13300000, 0.00633333, 0.0
48, 0.13933333, 0.00633333, 0.0
49, 0.14566667, 0.00633333, 0.0
50, 0.15200000, 0.00633333, 0.0
51, 0.00000000, 0.01266667, 0.0
52, 0.00633333, 0.01266667, 0.0
53, 0.01266667, 0.01266667, 0.0
54, 0.01900000, 0.01266667, 0.0
55, 0.02533333, 0.01266667, 0.0
56, 0.03166667, 0.01266667, 0.0
57, 0.03800000, 0.01266667, 0.0
58, 0.04433333, 0.01266667, 0.0
59, 0.05066667, 0.01266667, 0.0
60, 0.05700000, 0.01266667, 0.0
61, 0.06333333, 0.01266667, 0.0
62, 0.06966667, 0.01266667, 0.0
63, 0.07600000, 0.01266667, 0.0
64, 0.08233333, 0.01266667, 0.0
65, 0.08866667, 0.01266667, 0.0
66, 0.09500000, 0.01266667, 0.0
67, 0.10133333, 0.01266667, 0.0
68, 0.10766667, 0.01266667, 0.0
69, 0.11400000, 0.01266667, 0.0
70, 0.12033333, 0.01266667, 0.0
71, 0.12666667, 0.01266667, 0.0
72, 0.13300000, 0.01266667, 0.0
73, 0.13933333, 0.01266667, 0.0
74, 0.14566667, 0.01266667, 0.0
75, 0.15200000, 0.01266667, 0.0
76, 0.00000000, 0.01900000, 0.0
77, 0.00633333, 0.01900000, 0.0
78, 0.01266667, 0.01900000, 0.0
79, 0.01900000, 0.01900000, 0.0
80, 0.02533333, 0.01900000, 0.0
81, 0.03166667, 0.01900000, 0.0
82, 0.03800000, 0.01900000, 0.0
83, 0.04433333, 0.01900000, 0.0
84, 0.05066667, 0.01900000, 0.0
85, 0.05700000, 0.01900000, 0.0
86, 0.06333333, 0.01900000, 0.0
87, 0.06966667, 0.01900000, 0.0
88, 0.07600000, 0.01900000, 0.0
89, 0.08233333, 0.01900000, 0.0
90, 0.08866667, 0.01900000, 0.0
91, 0.09500000, 0.01900000, 0.0
92, 0.10133333, 0.01900000, 0.0
93, 0.10766667, 0.01900000, 0.0
94, 0.11400000, 0.01900000, 0.0
95, 0.12033333, 0.01900000, 0.0
96, 0.12666667, 0.01900000, 0.0
97, 0.13300000, 0.01900000, 0.0
98, 0.13933333, 0.01900000, 0.0
99, 0.14566667, 0.01900000, 0.0
100, 0.15200000, 0.01900000, 0.0
101, 0.00000000, 0.02533333, 0.0
102, 0.00633333, 0.02533333, 0.0
103, 0.01266667, 0.02533333, 0.0
104, 0.01900000, 0.02533333, 0.0
105, 0.02533333, 0.02533333, 0.0
106, 0.03166667, 0.02533333, 0.0
107, 0.03800000, 0.02533333, 0.0
108, 0.04433333, 0.02533333, 0.0
109, 0.05066667, 0.02533333, 0.0
110, 0.05700000, 0.02533333, 0.0
111, 0.06333333, 0.02533333, 0.0
112, 0.06966667, 0.02533333, 0.0
113, 0.07600000, 0.02533333, 0.0
114, 0.08233333, 0.02533333, 0.0
115, 0.08866667, 0.02533333, 0.0
116, 0.09500000, 0.02533333, 0.0
117, 0.10133333, 0.02533333, 0.0
118, 0.10766667, 0.02533333, 0.0
119, 0.11400000, 0.02533333, 0.0
120, 0.12033333, 0.02533333, 0.0
121, 0.12666667, 0.02533333, 0.0
122, 0.13300000, 0.02533333, 0.0
123, 0.13933333, 0.02533333, 0.0
124, 0.14566667, 0.02533333, 0.0
125, 0.15200000, 0.02533333, 0.0
126, 0.00000000, 0.03166667, 0.0
127, 0.00633333, 0.03166667, 0.0
128, 0.01266667, 0.03166667, 0.0
129, 0.01900000, 0.03166667, 0.0
130, 0.02533333, 0.03166667, 0.0
131, 0.03166667, 0.03166667, 0.0
132, 0.03800000, 0.03166667, 0.0
133, 0.04433333, 0.03166667, 0.0
134, 0.05066667, 0.03166667, 0.0
135, 0.05700000, 0.03166667, 0.0
136, 0.06333333, 0.03166667, 0.0
137, 0.06966667, 0.03166667, 0.0
138, 0.07600000, 0.03166667, 0.0
139, 0.08233333, 0.03166667, 0.0
140, 0.08866667, 0.03166667, 0.0
141, 0.09500000, 0.03166667, 0.0
142, 0.10133333, 0.03166667, 0.0
143, 0.10766667, 0.03166667, 0.0
144, 0.11400000, 0.03166667, 0.0
145, 0.12033333, 0.03166667, 0.0
146, 0.12666667, 0.03166667, 0.0
147, 0.13300000, 0.03166667, 0.0
148, 0.13933333, 0.03166667, 0.0
149, 0.14566667, 0.03166667, 0.0
150, 0.15200000, 0.03166667, 0.0
151, 0.00000000, 0.03800000, 0.0
152, 0.00633333, 0.03800000, 0.0
153, 0.01266667, 0.03800000, 0.0
154, 0.01900000, 0.03800000, 0.0
155, 0.02533333, 0.03800000, 0.0
156, 0.03166667, 0.03800000, 0.0
157, 0.03800000, 0.03800000, 0.0
158, 0.04433333, 0.03800000, 0.0
159, 0.05066667, 0.03800000, 0.0
160, 0.05700000, 0.03800000, 0.0
161, 0.06333333, 0.03800000, 0.0
162, 0.06966667, 0.03800000, 0.0
163, 0.07600000, 0.03800000, 0.0
164, 0.08233333, 0.03800000, 0.0
165, 0.08866667, 0.03800000, 0.0
166, 0.09500000, 0.03800000, 0.0
167, 0.10133333, 0.03800000, 0.0
168, 0.10766667, 0.03800000, 0.0
169, 0.11400000, 0.03800000, 0.0
170, 0.12033333, 0.03800000, 0.0
171, 0.12666667, 0.03800000, 0.0
172, 0.13300000, 0.03800000, 0.0
173, 0.13933333, 0.03800000, 0.0
174, 0.14566667, 0.03800000, 0.0
175, 0.15200000, 0.03800000, 0.0
176, 0.00000000, 0.04433333, 0.0
177, 0.00633333, 0.04433333, 0.0
178, 0.01266667, 0.04433333, 0.0
179, 0.01900000, 0.04433333, 0.0
180, 0.02533333, 0.04433333, 0.0
181, 0.03166667, 0.04433333, 0.0
182, 0.03800000, 0.04433333, 0.0
183, 0.04433333, 0.04433333, 0.0
184, 0.05066667, 0.04433333, 0.0
185, 0.05700000, 0.04433333, 0.0
186, 0.06333333, 0.04433333, 0.0
187, 0.06966667, 0.04433333, 0.0
188, 0.07600000, 0.04433333, 0.0
189, 0.08233333, 0.04433333, 0.0
190, 0.08866667, 0.04433333, 0.0
191, 0.09500000, 0.04433333, 0.0
192, 0.10133333, 0.04433333, 0.0
193, 0.10766667, 0.04433333, 0.0
194, 0.11400000, 0.04433333, 0.0
195, 0.12033333, 0.04433333, 0.0
196, 0.12666667, 0.04433333, 0.0
197, 0.13300000, 0.04433333, 0.0
198, 0.13933333, 0.04433333, 0.0
199, 0.14566667, 0.04433333, 0.0
200, 0.15200000, 0.04433333, 0.0
201, 0.00000000, 0.05066667, 0.0
202, 0.00633333, 0.05066667, 0.0
203, 0.01266667, 0.05066667, 0.0
204, 0.01900000, 0.05066667, 0.0
205, 0.02533333, 0.05066667, 0.0
206, 0.03166667, 0.05066667, 0.0
207, 0.03800000, 0.05066667, 0.0
208, 0.04433333, 0.05066667, 0.0
209, 0.05066667, 0.05066667, 0.0
210, 0.05700000, 0.05066667, 0.0
211, 0.06333333, 0.05066667, 0.0
212, 0.06966667, 0.05066667, 0.0
213, 0.07600000, 0.05066667, 0.0
214, 0.08233333, 0.05066667, 0.0
215, 0.08866667, 0.05066667, 0.0
216, 0.09500000, 0.05066667, 0.0
217, 0.10133333, 0.05066667, 0.0
218, 0.10766667, 0.05066667, 0.0
219, 0.11400000, 0.05066667, 0.0
220, 0.12033333, 0.05066667, 0.0
221, 0.12666667, 0.05066667, 0.0
222, 0.13300000, 0.05066667, 0.0
223, 0.13933333, 0.05066667, 0.0
224, 0.14566667, 0.05066667, 0.0
225, 0.15200000, 0.05066667, 0.0
226, 0.00000000, 0.05700000, 0.0
227, 0.00633333, 0.05700000, 0.0
228, 0.01266667, 0.05700000, 0.0
229, 0.01900000, 0.05700000, 0.0
230, 0.02533333, 0.05700000, 0.0
231, 0.03166667, 0.05700000, 0.0
232, 0.03800000, 0.05700000, 0.0
233, 0.04433333, 0.05700000, 0.0
234, 0.05066667, 0.05700000, 0.0
235, 0.05700000, 0.05700000, 0.0
236, 0.06333333, 0.05700000, 0.0
237, 0.06966667, 0.05700000, 0.0
238, 0.07600000, 0.05700000, 0.0
239, 0.08233333, 0.05700000, 0.0
240, 0.08866667, 0.05700000, 0.0
241, 0.09500000, 0.05700000, 0.0
242, 0.10133333, 0.05700000, 0.0
243, 0.10766667, 0.05700000, 0.0
244, 0.11400000, 0.05700000, 0.0
245, 0.12033333, 0.05700000, 0.0
246, 0.12666667, 0.05700000, 0.0
247, 0.13300000, 0.05700000, 0.0
248, 0.13933333, 0.05700000, 0.0
249, 0.14566667, 0.05700000, 0.0
250, 0.15200000, 0.05700000, 0.0
251, 0.00000000, 0.06333333, 0.0
252, 0.00633333, 0.06333333, 0.0
253, 0.01266667, 0.06333333, 0.0
254, 0.01900000, 0.06333333, 0.0
255, 0.02533333, 0.06333333, 0.0
256, 0.03166667, 0.06333333, 0.0
257, 0.03800000, 0.06333333, 0.0
258, 0.04433333, 0.06333333, 0.0
259, 0.05066667, 0.06333333, 0.0
260, 0.05700000, 0.06333333, 0.0
261, 0.06333333, 0.06333333, 0.0
262, 0.06966667, 0.06333333, 0.0
263, 0.07600000, 0.06333333, 0.0
264, 0.08233333, 0.06333333, 0.0
265, 0.08866667, 0.06333333, 0.0
266, 0.09500000, 0.06333333, 0.0
267, 0.10133333, 0.06333333, 0.0
268, 0.10766667, 0.06333333, 0.0
269, 0.11400000, 0.06333333, 0.0
270, 0.12033333, 0.06333333, 0.0
271, 0.12666667, 0.06333333, 0.0
272, 0.13300000, 0.06333333, 0.0
273, 0.13933333, 0.06333333, 0.0
274, 0.14566667, 0.06333333, 0.0
275, 0.15200000, 0.06333333, 0.0
276, 0.00000000, 0.06966667, 0.0
277, 0.00633333, 0.06966667, 0.0
278, 0.01266667, 0.06966667, 0.0
279, 0.01900000, 0.06966667, 0.0
280, 0.02533333, 0.06966667, 0.0
281, 0.03166667, 0.06966667, 0.0
282, 0.03800000, 0.06966667, 0.0
283, 0.04433333, 0.06966667, 0.0
284, 0.05066667, 0.06966667, 0.0
285, 0.05700000, 0.06966667, 0.0
286, 0.06333333, 0.06966667, 0.0
287, 0.06966667, 0.06966667, 0.0
288, 0.07600000, 0.06966667, 0.0
289, 0.08233333, 0.06966667, 0.0
290, 0.08866667, 0.06966667, 0.0
291, 0.09500000, 0.06966667, 0.0
292, 0.10133333, 0.06966667, 0.0
293, 0.10766667, 0.06966667, 0.0
294, 0.11400000, 0.06966667, 0.0
295, 0.12033333, 0.06966667, 0.0
296, 0.12666667, 0.06966667, 0.0
297, 0.13300000, 0.06966667, 0.0
298, 0.13933333, 0.06966667, 0.0
299, 0.14566667, 0.06966667, 0.0
300, 0.15200000, 0.06966667, 0.0
301, 0.00000000, 0.07600000, 0.0
302, 0.00633333, 0.07600000, 0.0
303, 0.01266667, 0.07600000, 0.0
304, 0.01900000, 0.07600000, 0.0
305, 0.02533333, 0.07600000, 0.0
306, 0.03166667, 0.07600000, 0.0
307, 0.03800000, 0.07600000, 0.0
308, 0.04433333, 0.07600000, 0.0
309, 0.05066667, 0.07600000, 0.0
310, 0.05700000, 0.07600000, 0.0
311, 0.06333333, 0.07600000, 0.0
312, 0.06966667, 0.07600000, 0.0
313, 0.07600000, 0.07600000, 0.0
314, 0.08233333, 0.07600000, 0.0
315, 0.08866667, 0.07600000, 0.0
316, 0.09500000, 0.07600000, 0.0
317, 0.10133333, 0.07600000, 0.0
318, 0.10766667, 0.07600000, 0.0
319, 0.11400000, 0.07600000, 0.0
320, 0.12033333, 0.07600000, 0.0
321, 0.12666667, 0.07600000, 0.0
322, 0.13300000, 0.07600000, 0.0
323, 0.13933333, 0.07600000, 0.0
324, 0.14566667, 0.07600000, 0.0
325, 0.15200000, 0.07600000, 0.0
*ELEMENT, TYPE=S4, ELSET=EALL
1, 1, 2, 27, 26
2, 2, 3, 28, 27
3, 3, 4, 29, 28
4, 4, 5, 30, 29
5, 5, 6, 31, 30
6, 6, 7, 32, 31
7, 7, 8, 33, 32
8, 8, 9, 34, 33
9, 9, 10, 35, 34
10, 10, 11, 36, 35
11, 11, 12, 37, 36
12, 12, 13, 38, 37
13, 13, 14, 39, 38
14, 14, 15, 40, 39
15, 15, 16, 41, 40
16, 16, 17, 42, 41
17, 17, 18, 43, 42
18, 18, 19, 44, 43
19, 19, 20, 45, 44
20, 20, 21, 46, 45
21, 21, 22, 47, 46
22, 22, 23, 48, 47
23, 23, 24, 49, 48
24, 24, 25, 50, 49
25, 26, 27, 52, 51
26, 27, 28, 53, 52
27, 28, 29, 54, 53
28, 29, 30, 55, 54
29, 30, 31, 56, 55
30, 31, 32, 57, 56
31, 32, 33, 58, 57
32, 33, 34, 59, 58
33, 34, 35, 60, 59
34, 35, 36, 61, 60
35, 36, 37, 62, 61
36, 37, 38, 63, 62
37, 38, 39, 64, 63
38, 39, 40, 65, 64
39, 40, 41, 66, 65
40, 41, 42, 67, 66
41, 42, 43, 68, 67
42, 43, 44, 69, 68
43, 44, 45, 70, 69
44, 45, 46, 71, 70
45, 46, 47, 72, 71
46, 47, 48, 73, 72
47, 48, 49, 74, 73
48, 49, 50, 75, 74
49, 51, 52, 77, 76
50, 52, 53, 78, 77
51, 53, 54, 79, 78
52, 54, 55, 80, 79
53, 55, 56, 81, 80
54, 56, 57, 82, 81
55, 57, 58, 83, 82
56, 58, 59, 84, 83
57, 59, 60, 85, 84
58, 60, 61, 86, 85
59, 61, 62, 87, 86
60, 62, 63, 88, 87
61, 63, 64, 89, 88
62, 64, 65, 90, 89
63, 65, 66, 91, 90
64, 66, 67, 92, 91
65, 67, 68, 93, 92
66, 68, 69, 94, 93
67, 69, 70, 95, 94
68, 70, 71, 96, 95
69, 71, 72, 97, 96
70, 72, 73, 98, 97
71, 73, 74, 99, 98
72, 74, 75, 100, 99
73, 76, 77, 102, 101
74, 77, 78, 103, 102
75, 78, 79, 104, 103
76, 79, 80, 105, 104
77, 80, 81, 106, 105
78, 81, 82, 107, 106
79, 82, 83, 108, 107
80, 83, 84, 109, 108
81, 84, 85, 110, 109
82, 85, 86, 111, 110
83, 86, 87, 112, 111
84, 87, 88, 113, 112
85, 88, 89, 114, 113
86, 89, 90, 115, 114
87, 90, 91, 116, 115
88, 91, 92, 117, 116
89, 92, 93, 118, 117
90, 93, 94, 119, 118
91, 94, 95, 120, 119
92, 95, 96, 121, 120
93, 96, 97, 122, 121
94, 97, 98, 123, 122
95, 98, 99, 124, 123
96, 99, 100, 125, 124
97, 101, 102, 127, 126
98, 102, 103, 128, 127
99, 103, 104, 129, 128
100, 104, 105, 130, 129
101, 105, 106, 131, 130
102, 106, 107, 132, 131
103, 107, 108, 133, 132
104, 108, 109, 134, 133
105, 109, 110, 135, 134
106, 110, 111, 136, 135
107, 111, 112, 137, 136
108, 112, 113, 138, 137
109, 113, 114, 139, 138
110, 114, 115, 140, 139
111, 115, 116, 141, 140
112, 116, 117, 142, 141
113, 117, 118, 143, 142
114, 118, 119, 144, 143
115, 119, 120, 145, 144
116, 120, 121, 146, 145
117, 121, 122, 147, 146
118, 122, 123, 148, 147
119, 123, 124, 149, 148
120, 124, 125, 150, 149
121, 126, 127, 152, 151
122, 127, 128, 153, 152
123, 128, 129, 154, 153
124, 129, 130, 155, 154
125, 130, 131, 156, 155
126, 131, 132, 157, 156
127, 132, 133, 158, 157
128, 133, 134, 159, 158
129, 134, 135, 160, 159
130, 135, 136, 161, 160
131, 136, 137, 162, 161
132, 137, 138, 163, 162
133, 138, 139, 164, 163
134, 139, 140, 165, 164
135, 140, 141, 166, 165
136, 141, 142, 167, 166
137, 142, 143, 168, 167
138, 143, 144, 169, 168
139, 144, 145, 170, 169
140, 145, 146, 171, 170
141, 146, 147, 172, 171
142, 147, 148, 173, 172
143, 148, 149, 174, 173
144, 149, 150, 175, 174
145, 151, 152, 177, 176
146, 152, 153, 178, 177
147, 153, 154, 179, 178
148, 154, 155, 180, 179
149, 155, 156, 181, 180
150, 156, 157, 182, 181
151, 157, 158, 183, 182
152, 158, 159, 184, 183
153, 159, 160, 185, 184
154, 160, 161, 186, 185
155, 161, 162, 187, 186
156, 162, 163, 188, 187
157, 163, 164, 189, 188
158, 164, 165, 190, 189
159, 165, 166, 191, 190
160, 166, 167, 192, 191
161, 167, 168, 193, 192
162, 168, 169, 194, 193
163, 169, 170, 195, 194
164, 170, 171, 196, 195
165, 171, 172, 197, 196
166, 172, 173, 198, 197
167, 173, 174, 199, 198
168, 174, 175, 200, 199
169, 176, 177, 202, 201
170, 177, 178, 203, 202
171, 178, 179, 204, 203
172, 179, 180, 205, 204
173, 180, 181, 206, 205
174, 181, 182, 207, 206
175, 182, 183, 208, 207
176, 183, 184, 209, 208
177, 184, 185, 210, 209
178, 185, 186, 211, 210
179, 186, 187, 212, 211
180, 187, 188, 213, 212
181, 188, 189, 214, 213
182, 189, 190, 215, 214
183, 190, 191, 216, 215
184, 191, 192, 217, 216
185, 192, 193, 218, 217
186, 193, 194, 219, 218
187, 194, 195, 220, 219
188, 195, 196, 221, 220
189, 196, 197, 222, 221
190, 197, 198, 223, 222
191, 198, 199, 224, 223
192, 199, 200, 225, 224
193, 201, 202, 227, 226
194, 202, 203, 228, 227
195, 203, 204, 229, 228
196, 204, 205, 230, 229
197, 205, 206, 231, 230
198, 206, 207, 232, 231
199, 207, 208, 233, 232
200, 208, 209, 234, 233
201, 209, 210, 235, 234
202, 210, 211, 236, 235
203, 211, 212, 237, 236
204, 212, 213, 238, 237
205, 213, 214, 239, 238
206, 214, 215, 240, 239
207, 215, 216, 241, 240
208, 216, 217, 242, 241
209, 217, 218, 243, 242
210, 218, 219, 244, 243
211, 219, 220, 245, 244
212, 220, 221, 246, 245
213, 221, 222, 247, 246
214, 222, 223, 248, 247
215, 223, 224, 249, 248
216, 224, 225, 250, 249
217, 226, 227, 252, 251
218, 227, 228, 253, 252
219, 228, 229, 254, 253
220, 229, 230, 255, 254
221, 230, 231, 256, 255
222, 231, 232, 257, 256
223, 232, 233, 258, 257
224, 233, 234, 259, 258
225, 234, 235, 260, 259
226, 235, 236, 261, 260
227, 236, 237, 262, 261
228, 237, 238, 263, 262
229, 238, 239, 264, 263
230, 239, 240, 265, 264
231, 240, 241, 266, 265
232, 241, 242, 267, 266
233, 242, 243, 268, 267
234, 243, 244, 269, 268
235, 244, 245, 270, 269
236, 245, 246, 271, 270
237, 246, 247, 272, 271
238, 247, 248, 273, 272
239, 248, 249, 274, 273
240, 249, 250, 275, 274
241, 251, 252, 277, 276
242, 252, 253, 278, 277
243, 253, 254, 279, 278
244, 254, 255, 280, 279
245, 255, 256, 281, 280
246, 256, 257, 282, 281
247, 257, 258, 283, 282
248, 258, 259, 284, 283
249, 259, 260, 285, 284
250, 260, 261, 286, 285
251, 261, 262, 287, 286
252, 262, 263, 288, 287
253, 263, 264, 289, 288
254, 264, 265, 290, 289
255, 265, 266, 291, 290
256, 266, 267, 292, 291
257, 267, 268, 293, 292
258, 268, 269, 294, 293
259, 269, 270, 295, 294
260, 270, 271, 296, 295
261, 271, 272, 297, 296
262, 272, 273, 298, 297
263, 273, 274, 299, 298
264, 274, 275, 300, 299
265, 276, 277, 302, 301
266, 277, 278, 303, 302
267, 278, 279, 304, 303
268, 279, 280, 305, 304
269, 280, 281, 306, 305
270, 281, 282, 307, 306
271, 282, 283, 308, 307
272, 283, 284, 309, 308
273, 284, 285, 310, 309
274, 285, 286, 311, 310
275, 286, 287, 312, 311
276, 287, 288, 313, 312
277, 288, 289, 314, 313
278, 289, 290, 315, 314
279, 290, 291, 316, 315
280, 291, 292, 317, 316
281, 292, 293, 318, 317
282, 293, 294, 319, 318
283, 294, 295, 320, 319
284, 295, 296, 321, 320
285, 296, 297, 322, 321
286, 297, 298, 323, 322
287, 298, 299, 324, 323
288, 299, 300, 325, 324
*NSET, NSET=NROOT
1, 26, 51, 76, 101, 126, 151, 176, 201, 226, 251, 276
301
*NSET, NSET=NALL, GENERATE
1, 325, 1
*MATERIAL, NAME=GE
*ELASTIC, TYPE=LAMINA
1.280000e+11, 1.100000e+10, 0.25, 4.480000e+09, 4.480000e+09, 1.530000e+09
*DENSITY
1500,
*MATERIAL, NAME=AL
*ELASTIC, TYPE=LAMINA
6.890000e+10, 6.890000e+10, 0.3, 2.650000e+10, 2.650000e+10, 2.650000e+10
*DENSITY
2770,
*SHELL SECTION, ELSET=EALL, COMPOSITE
0.00013, 3, GE, 45
0.00013, 3, GE, -45
0.00013, 3, GE, 45
0.00013, 3, GE, -45
0.001, 3, AL, 0
0.00013, 3, GE, -45
0.00013, 3, GE, 45
0.00013, 3, GE, -45
0.00013, 3, GE, 45
*BOUNDARY
NROOT, 1, 6
NALL, 6, 6
*STEP, NAME=MODES
*FREQUENCY
8,
*END STEP
