*HEADING
Nayak-Shenoi-Moy Ex.5 sandwich, 3-D SOLID benchmark, step pulse
** 20 x 20 x 16 C3D8I; one element per face ply, 8 through core
*NODE
1, 0.00000000, 0.00000000, 0.00000000
2, 0.07620000, 0.00000000, 0.00000000
3, 0.15240000, 0.00000000, 0.00000000
4, 0.22860000, 0.00000000, 0.00000000
5, 0.30480000, 0.00000000, 0.00000000
6, 0.38100000, 0.00000000, 0.00000000
7, 0.45720000, 0.00000000, 0.00000000
8, 0.53340000, 0.00000000, 0.00000000
9, 0.60960000, 0.00000000, 0.00000000
10, 0.68580000, 0.00000000, 0.00000000
11, 0.76200000, 0.00000000, 0.00000000
12, 0.83820000, 0.00000000, 0.00000000
13, 0.91440000, 0.00000000, 0.00000000
14, 0.99060000, 0.00000000, 0.00000000
15, 1.06680000, 0.00000000, 0.00000000
16, 1.14300000, 0.00000000, 0.00000000
17, 1.21920000, 0.00000000, 0.00000000
18, 1.29540000, 0.00000000, 0.00000000
19, 1.37160000, 0.00000000, 0.00000000
20, 1.44780000, 0.00000000, 0.00000000
21, 1.52400000, 0.00000000, 0.00000000
22, 0.00000000, 0.07620000, 0.00000000
23, 0.07620000, 0.07620000, 0.00000000
24, 0.15240000, 0.07620000, 0.00000000
25, 0.22860000, 0.07620000, 0.00000000
26, 0.30480000, 0.07620000, 0.00000000
27, 0.38100000, 0.07620000, 0.00000000
28, 0.45720000, 0.07620000, 0.00000000
29, 0.53340000, 0.07620000, 0.00000000
30, 0.60960000, 0.07620000, 0.00000000
31, 0.68580000, 0.07620000, 0.00000000
32, 0.76200000, 0.07620000, 0.00000000
33, 0.83820000, 0.07620000, 0.00000000
34, 0.91440000, 0.07620000, 0.00000000
35, 0.99060000, 0.07620000, 0.00000000
36, 1.06680000, 0.07620000, 0.00000000
37, 1.14300000, 0.07620000, 0.00000000
38, 1.21920000, 0.07620000, 0.00000000
39, 1.29540000, 0.07620000, 0.00000000
40, 1.37160000, 0.07620000, 0.00000000
41, 1.44780000, 0.07620000, 0.00000000
42, 1.52400000, 0.07620000, 0.00000000
43, 0.00000000, 0.15240000, 0.00000000
44, 0.07620000, 0.15240000, 0.00000000
45, 0.15240000, 0.15240000, 0.00000000
46, 0.22860000, 0.15240000, 0.00000000
47, 0.30480000, 0.15240000, 0.00000000
48, 0.38100000, 0.15240000, 0.00000000
49, 0.45720000, 0.15240000, 0.00000000
50, 0.53340000, 0.15240000, 0.00000000
51, 0.60960000, 0.15240000, 0.00000000
52, 0.68580000, 0.15240000, 0.00000000
53, 0.76200000, 0.15240000, 0.00000000
54, 0.83820000, 0.15240000, 0.00000000
55, 0.91440000, 0.15240000, 0.00000000
56, 0.99060000, 0.15240000, 0.00000000
57, 1.06680000, 0.15240000, 0.00000000
58, 1.14300000, 0.15240000, 0.00000000
59, 1.21920000, 0.15240000, 0.00000000
60, 1.29540000, 0.15240000, 0.00000000
61, 1.37160000, 0.15240000, 0.00000000
62, 1.44780000, 0.15240000, 0.00000000
63, 1.52400000, 0.15240000, 0.00000000
64, 0.00000000, 0.22860000, 0.00000000
65, 0.07620000, 0.22860000, 0.00000000
66, 0.15240000, 0.22860000, 0.00000000
67, 0.22860000, 0.22860000, 0.00000000
68, 0.30480000, 0.22860000, 0.00000000
69, 0.38100000, 0.22860000, 0.00000000
70, 0.45720000, 0.22860000, 0.00000000
71, 0.53340000, 0.22860000, 0.00000000
72, 0.60960000, 0.22860000, 0.00000000
73, 0.68580000, 0.22860000, 0.00000000
74, 0.76200000, 0.22860000, 0.00000000
75, 0.83820000, 0.22860000, 0.00000000
76, 0.91440000, 0.22860000, 0.00000000
77, 0.99060000, 0.22860000, 0.00000000
78, 1.06680000, 0.22860000, 0.00000000
79, 1.14300000, 0.22860000, 0.00000000
80, 1.21920000, 0.22860000, 0.00000000
81, 1.29540000, 0.22860000, 0.00000000
82, 1.37160000, 0.22860000, 0.00000000
83, 1.44780000, 0.22860000, 0.00000000
84, 1.52400000, 0.22860000, 0.00000000
85, 0.00000000, 0.30480000, 0.00000000
86, 0.07620000, 0.30480000, 0.00000000
87, 0.15240000, 0.30480000, 0.00000000
88, 0.22860000, 0.30480000, 0.00000000
89, 0.30480000, 0.30480000, 0.00000000
90, 0.38100000, 0.30480000, 0.00000000
91, 0.45720000, 0.30480000, 0.00000000
92, 0.53340000, 0.30480000, 0.00000000
93, 0.60960000, 0.30480000, 0.00000000
94, 0.68580000, 0.30480000, 0.00000000
95, 0.76200000, 0.30480000, 0.00000000
96, 0.83820000, 0.30480000, 0.00000000
97, 0.91440000, 0.30480000, 0.00000000
98, 0.99060000, 0.30480000, 0.00000000
99, 1.06680000, 0.30480000, 0.00000000
100, 1.14300000, 0.30480000, 0.00000000
101, 1.21920000, 0.30480000, 0.00000000
102, 1.29540000, 0.30480000, 0.00000000
103, 1.37160000, 0.30480000, 0.00000000
104, 1.44780000, 0.30480000, 0.00000000
105, 1.52400000, 0.30480000, 0.00000000
106, 0.00000000, 0.38100000, 0.00000000
107, 0.07620000, 0.38100000, 0.00000000
108, 0.15240000, 0.38100000, 0.00000000
109, 0.22860000, 0.38100000, 0.00000000
110, 0.30480000, 0.38100000, 0.00000000
111, 0.38100000, 0.38100000, 0.00000000
112, 0.45720000, 0.38100000, 0.00000000
113, 0.53340000, 0.38100000, 0.00000000
114, 0.60960000, 0.38100000, 0.00000000
115, 0.68580000, 0.38100000, 0.00000000
116, 0.76200000, 0.38100000, 0.00000000
117, 0.83820000, 0.38100000, 0.00000000
118, 0.91440000, 0.38100000, 0.00000000
119, 0.99060000, 0.38100000, 0.00000000
120, 1.06680000, 0.38100000, 0.00000000
121, 1.14300000, 0.38100000, 0.00000000
122, 1.21920000, 0.38100000, 0.00000000
123, 1.29540000, 0.38100000, 0.00000000
124, 1.37160000, 0.38100000, 0.00000000
125, 1.44780000, 0.38100000, 0.00000000
126, 1.52400000, 0.38100000, 0.00000000
127, 0.00000000, 0.45720000, 0.00000000
128, 0.07620000, 0.45720000, 0.00000000
129, 0.15240000, 0.45720000, 0.00000000
130, 0.22860000, 0.45720000, 0.00000000
131, 0.30480000, 0.45720000, 0.00000000
132, 0.38100000, 0.45720000, 0.00000000
133, 0.45720000, 0.45720000, 0.00000000
134, 0.53340000, 0.45720000, 0.00000000
135, 0.60960000, 0.45720000, 0.00000000
136, 0.68580000, 0.45720000, 0.00000000
137, 0.76200000, 0.45720000, 0.00000000
138, 0.83820000, 0.45720000, 0.00000000
139, 0.91440000, 0.45720000, 0.00000000
140, 0.99060000, 0.45720000, 0.00000000
141, 1.06680000, 0.45720000, 0.00000000
142, 1.14300000, 0.45720000, 0.00000000
143, 1.21920000, 0.45720000, 0.00000000
144, 1.29540000, 0.45720000, 0.00000000
145, 1.37160000, 0.45720000, 0.00000000
146, 1.44780000, 0.45720000, 0.00000000
147, 1.52400000, 0.45720000, 0.00000000
148, 0.00000000, 0.53340000, 0.00000000
149, 0.07620000, 0.53340000, 0.00000000
150, 0.15240000, 0.53340000, 0.00000000
151, 0.22860000, 0.53340000, 0.00000000
152, 0.30480000, 0.53340000, 0.00000000
153, 0.38100000, 0.53340000, 0.00000000
154, 0.45720000, 0.53340000, 0.00000000
155, 0.53340000, 0.53340000, 0.00000000
156, 0.60960000, 0.53340000, 0.00000000
157, 0.68580000, 0.53340000, 0.00000000
158, 0.76200000, 0.53340000, 0.00000000
159, 0.83820000, 0.53340000, 0.00000000
160, 0.91440000, 0.53340000, 0.00000000
161, 0.99060000, 0.53340000, 0.00000000
162, 1.06680000, 0.53340000, 0.00000000
163, 1.14300000, 0.53340000, 0.00000000
164, 1.21920000, 0.53340000, 0.00000000
165, 1.29540000, 0.53340000, 0.00000000
166, 1.37160000, 0.53340000, 0.00000000
167, 1.44780000, 0.53340000, 0.00000000
168, 1.52400000, 0.53340000, 0.00000000
169, 0.00000000, 0.60960000, 0.00000000
170, 0.07620000, 0.60960000, 0.00000000
171, 0.15240000, 0.60960000, 0.00000000
172, 0.22860000, 0.60960000, 0.00000000
173, 0.30480000, 0.60960000, 0.00000000
174, 0.38100000, 0.60960000, 0.00000000
175, 0.45720000, 0.60960000, 0.00000000
176, 0.53340000, 0.60960000, 0.00000000
177, 0.60960000, 0.60960000, 0.00000000
178, 0.68580000, 0.60960000, 0.00000000
179, 0.76200000, 0.60960000, 0.00000000
180, 0.83820000, 0.60960000, 0.00000000
181, 0.91440000, 0.60960000, 0.00000000
182, 0.99060000, 0.60960000, 0.00000000
183, 1.06680000, 0.60960000, 0.00000000
184, 1.14300000, 0.60960000, 0.00000000
185, 1.21920000, 0.60960000, 0.00000000
186, 1.29540000, 0.60960000, 0.00000000
187, 1.37160000, 0.60960000, 0.00000000
188, 1.44780000, 0.60960000, 0.00000000
189, 1.52400000, 0.60960000, 0.00000000
190, 0.00000000, 0.68580000, 0.00000000
191, 0.07620000, 0.68580000, 0.00000000
192, 0.15240000, 0.68580000, 0.00000000
193, 0.22860000, 0.68580000, 0.00000000
194, 0.30480000, 0.68580000, 0.00000000
195, 0.38100000, 0.68580000, 0.00000000
196, 0.45720000, 0.68580000, 0.00000000
197, 0.53340000, 0.68580000, 0.00000000
198, 0.60960000, 0.68580000, 0.00000000
199, 0.68580000, 0.68580000, 0.00000000
200, 0.76200000, 0.68580000, 0.00000000
201, 0.83820000, 0.68580000, 0.00000000
202, 0.91440000, 0.68580000, 0.00000000
203, 0.99060000, 0.68580000, 0.00000000
204, 1.06680000, 0.68580000, 0.00000000
205, 1.14300000, 0.68580000, 0.00000000
206, 1.21920000, 0.68580000, 0.00000000
207, 1.29540000, 0.68580000, 0.00000000
208, 1.37160000, 0.68580000, 0.00000000
209, 1.44780000, 0.68580000, 0.00000000
210, 1.52400000, 0.68580000, 0.00000000
211, 0.00000000, 0.76200000, 0.00000000
212, 0.07620000, 0.76200000, 0.00000000
213, 0.15240000, 0.76200000, 0.00000000
214, 0.22860000, 0.76200000, 0.00000000
215, 0.30480000, 0.76200000, 0.00000000
216, 0.38100000, 0.76200000, 0.00000000
217, 0.45720000, 0.76200000, 0.00000000
218, 0.53340000, 0.76200000, 0.00000000
219, 0.60960000, 0.76200000, 0.00000000
220, 0.68580000, 0.76200000, 0.00000000
221, 0.76200000, 0.76200000, 0.00000000
222, 0.83820000, 0.76200000, 0.00000000
223, 0.91440000, 0.76200000, 0.00000000
224, 0.99060000, 0.76200000, 0.00000000
225, 1.06680000, 0.76200000, 0.00000000
226, 1.14300000, 0.76200000, 0.00000000
227, 1.21920000, 0.76200000, 0.00000000
228, 1.29540000, 0.76200000, 0.00000000
229, 1.37160000, 0.76200000, 0.00000000
230, 1.44780000, 0.76200000, 0.00000000
231, 1.52400000, 0.76200000, 0.00000000
232, 0.00000000, 0.83820000, 0.00000000
233, 0.07620000, 0.83820000, 0.00000000
234, 0.15240000, 0.83820000, 0.00000000
235, 0.22860000, 0.83820000, 0.00000000
236, 0.30480000, 0.83820000, 0.00000000
237, 0.38100000, 0.83820000, 0.00000000
238, 0.45720000, 0.83820000, 0.00000000
239, 0.53340000, 0.83820000, 0.00000000
240, 0.60960000, 0.83820000, 0.00000000
241, 0.68580000, 0.83820000, 0.00000000
242, 0.76200000, 0.83820000, 0.00000000
243, 0.83820000, 0.83820000, 0.00000000
244, 0.91440000, 0.83820000, 0.00000000
245, 0.99060000, 0.83820000, 0.00000000
246, 1.06680000, 0.83820000, 0.00000000
247, 1.14300000, 0.83820000, 0.00000000
248, 1.21920000, 0.83820000, 0.00000000
249, 1.29540000, 0.83820000, 0.00000000
250, 1.37160000, 0.83820000, 0.00000000
251, 1.44780000, 0.83820000, 0.00000000
252, 1.52400000, 0.83820000, 0.00000000
253, 0.00000000, 0.91440000, 0.00000000
254, 0.07620000, 0.91440000, 0.00000000
255, 0.15240000, 0.91440000, 0.00000000
256, 0.22860000, 0.91440000, 0.00000000
257, 0.30480000, 0.91440000, 0.00000000
258, 0.38100000, 0.91440000, 0.00000000
259, 0.45720000, 0.91440000, 0.00000000
260, 0.53340000, 0.91440000, 0.00000000
261, 0.60960000, 0.91440000, 0.00000000
262, 0.68580000, 0.91440000, 0.00000000
263, 0.76200000, 0.91440000, 0.00000000
264, 0.83820000, 0.91440000, 0.00000000
265, 0.91440000, 0.91440000, 0.00000000
266, 0.99060000, 0.91440000, 0.00000000
267, 1.06680000, 0.91440000, 0.00000000
268, 1.14300000, 0.91440000, 0.00000000
269, 1.21920000, 0.91440000, 0.00000000
270, 1.29540000, 0.91440000, 0.00000000
271, 1.37160000, 0.91440000, 0.00000000
272, 1.44780000, 0.91440000, 0.00000000
273, 1.52400000, 0.91440000, 0.00000000
274, 0.00000000, 0.99060000, 0.00000000
275, 0.07620000, 0.99060000, 0.00000000
276, 0.15240000, 0.99060000, 0.00000000
277, 0.22860000, 0.99060000, 0.00000000
278, 0.30480000, 0.99060000, 0.00000000
279, 0.38100000, 0.99060000, 0.00000000
280, 0.45720000, 0.99060000, 0.00000000
281, 0.53340000, 0.99060000, 0.00000000
282, 0.60960000, 0.99060000, 0.00000000
283, 0.68580000, 0.99060000, 0.00000000
284, 0.76200000, 0.99060000, 0.00000000
285, 0.83820000, 0.99060000, 0.00000000
286, 0.91440000, 0.99060000, 0.00000000
287, 0.99060000, 0.99060000, 0.00000000
288, 1.06680000, 0.99060000, 0.00000000
289, 1.14300000, 0.99060000, 0.00000000
290, 1.21920000, 0.99060000, 0.00000000
291, 1.29540000, 0.99060000, 0.00000000
292, 1.37160000, 0.99060000, 0.00000000
293, 1.44780000, 0.99060000, 0.00000000
294, 1.52400000, 0.99060000, 0.00000000
295, 0.00000000, 1.06680000, 0.00000000
296, 0.07620000, 1.06680000, 0.00000000
297, 0.15240000, 1.06680000, 0.00000000
298, 0.22860000, 1.06680000, 0.00000000
299, 0.30480000, 1.06680000, 0.00000000
300, 0.38100000, 1.06680000, 0.00000000
301, 0.45720000, 1.06680000, 0.00000000
302, 0.53340000, 1.06680000, 0.00000000
303, 0.60960000, 1.06680000, 0.00000000
304, 0.68580000, 1.06680000, 0.00000000
305, 0.76200000, 1.06680000, 0.00000000
306, 0.83820000, 1.06680000, 0.00000000
307, 0.91440000, 1.06680000, 0.00000000
308, 0.99060000, 1.06680000, 0.00000000
309, 1.06680000, 1.06680000, 0.00000000
310, 1.14300000, 1.06680000, 0.00000000
311, 1.21920000, 1.06680000, 0.00000000
312, 1.29540000, 1.06680000, 0.00000000
313, 1.37160000, 1.06680000, 0.00000000
314, 1.44780000, 1.06680000, 0.00000000
315, 1.52400000, 1.06680000, 0.00000000
316, 0.00000000, 1.14300000, 0.00000000
317, 0.07620000, 1.14300000, 0.00000000
318, 0.15240000, 1.14300000, 0.00000000
319, 0.22860000, 1.14300000, 0.00000000
320, 0.30480000, 1.14300000, 0.00000000
321, 0.38100000, 1.14300000, 0.00000000
322, 0.45720000, 1.14300000, 0.00000000
323, 0.53340000, 1.14300000, 0.00000000
324, 0.60960000, 1.14300000, 0.00000000
325, 0.68580000, 1.14300000, 0.00000000
326, 0.76200000, 1.14300000, 0.00000000
327, 0.83820000, 1.14300000, 0.00000000
328, 0.91440000, 1.14300000, 0.00000000
329, 0.99060000, 1.14300000, 0.00000000
330, 1.06680000, 1.14300000, 0.00000000
331, 1.14300000, 1.14300000, 0.00000000
332, 1.21920000, 1.14300000, 0.00000000
333, 1.29540000, 1.14300000, 0.00000000
334, 1.37160000, 1.14300000, 0.00000000
335, 1.44780000, 1.14300000, 0.00000000
336, 1.52400000, 1.14300000, 0.00000000
337, 0.00000000, 1.21920000, 0.00000000
338, 0.07620000, 1.21920000, 0.00000000
339, 0.15240000, 1.21920000, 0.00000000
340, 0.22860000, 1.21920000, 0.00000000
341, 0.30480000, 1.21920000, 0.00000000
342, 0.38100000, 1.21920000, 0.00000000
343, 0.45720000, 1.21920000, 0.00000000
344, 0.53340000, 1.21920000, 0.00000000
345, 0.60960000, 1.21920000, 0.00000000
346, 0.68580000, 1.21920000, 0.00000000
347, 0.76200000, 1.21920000, 0.00000000
348, 0.83820000, 1.21920000, 0.00000000
349, 0.91440000, 1.21920000, 0.00000000
350, 0.99060000, 1.21920000, 0.00000000
351, 1.06680000, 1.21920000, 0.00000000
352, 1.14300000, 1.21920000, 0.00000000
353, 1.21920000, 1.21920000, 0.00000000
354, 1.29540000, 1.21920000, 0.00000000
355, 1.37160000, 1.21920000, 0.00000000
356, 1.44780000, 1.21920000, 0.00000000
357, 1.52400000, 1.21920000, 0.00000000
358, 0.00000000, 1.29540000, 0.00000000
359, 0.07620000, 1.29540000, 0.00000000
360, 0.15240000, 1.29540000, 0.00000000
361, 0.22860000, 1.29540000, 0.00000000
362, 0.30480000, 1.29540000, 0.00000000
363, 0.38100000, 1.29540000, 0.00000000
364, 0.45720000, 1.29540000, 0.00000000
365, 0.53340000, 1.29540000, 0.00000000
366, 0.60960000, 1.29540000, 0.00000000
367, 0.68580000, 1.29540000, 0.00000000
368, 0.76200000, 1.29540000, 0.00000000
369, 0.83820000, 1.29540000, 0.00000000
370, 0.91440000, 1.29540000, 0.00000000
371, 0.99060000, 1.29540000, 0.00000000
372, 1.06680000, 1.29540000, 0.00000000
373, 1.14300000, 1.29540000, 0.00000000
374, 1.21920000, 1.29540000, 0.00000000
375, 1.29540000, 1.29540000, 0.00000000
376, 1.37160000, 1.29540000, 0.00000000
377, 1.44780000, 1.29540000, 0.00000000
378, 1.52400000, 1.29540000, 0.00000000
379, 0.00000000, 1.37160000, 0.00000000
380, 0.07620000, 1.37160000, 0.00000000
381, 0.15240000, 1.37160000, 0.00000000
382, 0.22860000, 1.37160000, 0.00000000
383, 0.30480000, 1.37160000, 0.00000000
384, 0.38100000, 1.37160000, 0.00000000
385, 0.45720000, 1.37160000, 0.00000000
386, 0.53340000, 1.37160000, 0.00000000
387, 0.60960000, 1.37160000, 0.00000000
388, 0.68580000, 1.37160000, 0.00000000
389, 0.76200000, 1.37160000, 0.00000000
390, 0.83820000, 1.37160000, 0.00000000
391, 0.91440000, 1.37160000, 0.00000000
392, 0.99060000, 1.37160000, 0.00000000
393, 1.06680000, 1.37160000, 0.00000000
394, 1.14300000, 1.37160000, 0.00000000
395, 1.21920000, 1.37160000, 0.00000000
396, 1.29540000, 1.37160000, 0.00000000
397, 1.37160000, 1.37160000, 0.00000000
398, 1.44780000, 1.37160000, 0.00000000
399, 1.52400000, 1.37160000, 0.00000000
400, 0.00000000, 1.44780000, 0.00000000
401, 0.07620000, 1.44780000, 0.00000000
402, 0.15240000, 1.44780000, 0.00000000
403, 0.22860000, 1.44780000, 0.00000000
404, 0.30480000, 1.44780000, 0.00000000
405, 0.38100000, 1.44780000, 0.00000000
406, 0.45720000, 1.44780000, 0.00000000
407, 0.53340000, 1.44780000, 0.00000000
408, 0.60960000, 1.44780000, 0.00000000
409, 0.68580000, 1.44780000, 0.00000000
410, 0.76200000, 1.44780000, 0.00000000
411, 0.83820000, 1.44780000, 0.00000000
412, 0.91440000, 1.44780000, 0.00000000
413, 0.99060000, 1.44780000, 0.00000000
414, 1.06680000, 1.44780000, 0.00000000
415, 1.14300000, 1.44780000, 0.00000000
416, 1.21920000, 1.44780000, 0.00000000
417, 1.29540000, 1.44780000, 0.00000000
418, 1.37160000, 1.44780000, 0.00000000
419, 1.44780000, 1.44780000, 0.00000000
420, 1.52400000, 1.44780000, 0.00000000
421, 0.00000000, 1.52400000, 0.00000000
422, 0.07620000, 1.52400000, 0.00000000
423, 0.15240000, 1.52400000, 0.00000000
424, 0.22860000, 1.52400000, 0.00000000
425, 0.30480000, 1.52400000, 0.00000000
426, 0.38100000, 1.52400000, 0.00000000
427, 0.45720000, 1.52400000, 0.00000000
428, 0.53340000, 1.52400000, 0.00000000
429, 0.60960000, 1.52400000, 0.00000000
430, 0.68580000, 1.52400000, 0.00000000
431, 0.76200000, 1.52400000, 0.00000000
432, 0.83820000, 1.52400000, 0.00000000
433, 0.91440000, 1.52400000, 0.00000000
434, 0.99060000, 1.52400000, 0.00000000
435, 1.06680000, 1.52400000, 0.00000000
436, 1.14300000, 1.52400000, 0.00000000
437, 1.21920000, 1.52400000, 0.00000000
438, 1.29540000, 1.52400000, 0.00000000
439, 1.37160000, 1.52400000, 0.00000000
440, 1.44780000, 1.52400000, 0.00000000
441, 1.52400000, 1.52400000, 0.00000000
442, 0.00000000, 0.00000000, 0.00095250
443, 0.07620000, 0.00000000, 0.00095250
444, 0.15240000, 0.00000000, 0.00095250
445, 0.22860000, 0.00000000, 0.00095250
446, 0.30480000, 0.00000000, 0.00095250
447, 0.38100000, 0.00000000, 0.00095250
448, 0.45720000, 0.00000000, 0.00095250
449, 0.53340000, 0.00000000, 0.00095250
450, 0.60960000, 0.00000000, 0.00095250
451, 0.68580000, 0.00000000, 0.00095250
452, 0.76200000, 0.00000000, 0.00095250
453, 0.83820000, 0.00000000, 0.00095250
454, 0.91440000, 0.00000000, 0.00095250
455, 0.99060000, 0.00000000, 0.00095250
456, 1.06680000, 0.00000000, 0.00095250
457, 1.14300000, 0.00000000, 0.00095250
458, 1.21920000, 0.00000000, 0.00095250
459, 1.29540000, 0.00000000, 0.00095250
460, 1.37160000, 0.00000000, 0.00095250
461, 1.44780000, 0.00000000, 0.00095250
462, 1.52400000, 0.00000000, 0.00095250
463, 0.00000000, 0.07620000, 0.00095250
464, 0.07620000, 0.07620000, 0.00095250
465, 0.15240000, 0.07620000, 0.00095250
466, 0.22860000, 0.07620000, 0.00095250
467, 0.30480000, 0.07620000, 0.00095250
468, 0.38100000, 0.07620000, 0.00095250
469, 0.45720000, 0.07620000, 0.00095250
470, 0.53340000, 0.07620000, 0.00095250
471, 0.60960000, 0.07620000, 0.00095250
472, 0.68580000, 0.07620000, 0.00095250
473, 0.76200000, 0.07620000, 0.00095250
474, 0.83820000, 0.07620000, 0.00095250
475, 0.91440000, 0.07620000, 0.00095250
476, 0.99060000, 0.07620000, 0.00095250
477, 1.06680000, 0.07620000, 0.00095250
478, 1.14300000, 0.07620000, 0.00095250
479, 1.21920000, 0.07620000, 0.00095250
480, 1.29540000, 0.07620000, 0.00095250
481, 1.37160000, 0.07620000, 0.00095250
482, 1.44780000, 0.07620000, 0.00095250
483, 1.52400000, 0.07620000, 0.00095250
484, 0.00000000, 0.15240000, 0.00095250
485, 0.07620000, 0.15240000, 0.00095250
486, 0.15240000, 0.15240000, 0.00095250
487, 0.22860000, 0.15240000, 0.00095250
488, 0.30480000, 0.15240000, 0.00095250
489, 0.38100000, 0.15240000, 0.00095250
490, 0.45720000, 0.15240000, 0.00095250
491, 0.53340000, 0.15240000, 0.00095250
492, 0.60960000, 0.15240000, 0.00095250
493, 0.68580000, 0.15240000, 0.00095250
494, 0.76200000, 0.15240000, 0.00095250
495, 0.83820000, 0.15240000, 0.00095250
496, 0.91440000, 0.15240000, 0.00095250
497, 0.99060000, 0.15240000, 0.00095250
498, 1.06680000, 0.15240000, 0.00095250
499, 1.14300000, 0.15240000, 0.00095250
500, 1.21920000, 0.15240000, 0.00095250
501, 1.29540000, 0.15240000, 0.00095250
502, 1.37160000, 0.15240000, 0.00095250
503, 1.44780000, 0.15240000, 0.00095250
504, 1.52400000, 0.15240000, 0.00095250
505, 0.00000000, 0.22860000, 0.00095250
506, 0.07620000, 0.22860000, 0.00095250
507, 0.15240000, 0.22860000, 0.00095250
508, 0.22860000, 0.22860000, 0.00095250
509, 0.30480000, 0.22860000, 0.00095250
510, 0.38100000, 0.22860000, 0.00095250
511, 0.45720000, 0.22860000, 0.00095250
512, 0.53340000, 0.22860000, 0.00095250
513, 0.60960000, 0.22860000, 0.00095250
514, 0.68580000, 0.22860000, 0.00095250
515, 0.76200000, 0.22860000, 0.00095250
516, 0.83820000, 0.22860000, 0.00095250
517, 0.91440000, 0.22860000, 0.00095250
518, 0.99060000, 0.22860000, 0.00095250
519, 1.06680000, 0.22860000, 0.00095250
520, 1.14300000, 0.22860000, 0.00095250
521, 1.21920000, 0.22860000, 0.00095250
522, 1.29540000, 0.22860000, 0.00095250
523, 1.37160000, 0.22860000, 0.00095250
524, 1.44780000, 0.22860000, 0.00095250
525, 1.52400000, 0.22860000, 0.00095250
526, 0.00000000, 0.30480000, 0.00095250
527, 0.07620000, 0.30480000, 0.00095250
528, 0.15240000, 0.30480000, 0.00095250
529, 0.22860000, 0.30480000, 0.00095250
530, 0.30480000, 0.30480000, 0.00095250
531, 0.38100000, 0.30480000, 0.00095250
532, 0.45720000, 0.30480000, 0.00095250
533, 0.53340000, 0.30480000, 0.00095250
534, 0.60960000, 0.30480000, 0.00095250
535, 0.68580000, 0.30480000, 0.00095250
536, 0.76200000, 0.30480000, 0.00095250
537, 0.83820000, 0.30480000, 0.00095250
538, 0.91440000, 0.30480000, 0.00095250
539, 0.99060000, 0.30480000, 0.00095250
540, 1.06680000, 0.30480000, 0.00095250
541, 1.14300000, 0.30480000, 0.00095250
542, 1.21920000, 0.30480000, 0.00095250
543, 1.29540000, 0.30480000, 0.00095250
544, 1.37160000, 0.30480000, 0.00095250
545, 1.44780000, 0.30480000, 0.00095250
546, 1.52400000, 0.30480000, 0.00095250
547, 0.00000000, 0.38100000, 0.00095250
548, 0.07620000, 0.38100000, 0.00095250
549, 0.15240000, 0.38100000, 0.00095250
550, 0.22860000, 0.38100000, 0.00095250
551, 0.30480000, 0.38100000, 0.00095250
552, 0.38100000, 0.38100000, 0.00095250
553, 0.45720000, 0.38100000, 0.00095250
554, 0.53340000, 0.38100000, 0.00095250
555, 0.60960000, 0.38100000, 0.00095250
556, 0.68580000, 0.38100000, 0.00095250
557, 0.76200000, 0.38100000, 0.00095250
558, 0.83820000, 0.38100000, 0.00095250
559, 0.91440000, 0.38100000, 0.00095250
560, 0.99060000, 0.38100000, 0.00095250
561, 1.06680000, 0.38100000, 0.00095250
562, 1.14300000, 0.38100000, 0.00095250
563, 1.21920000, 0.38100000, 0.00095250
564, 1.29540000, 0.38100000, 0.00095250
565, 1.37160000, 0.38100000, 0.00095250
566, 1.44780000, 0.38100000, 0.00095250
567, 1.52400000, 0.38100000, 0.00095250
568, 0.00000000, 0.45720000, 0.00095250
569, 0.07620000, 0.45720000, 0.00095250
570, 0.15240000, 0.45720000, 0.00095250
571, 0.22860000, 0.45720000, 0.00095250
572, 0.30480000, 0.45720000, 0.00095250
573, 0.38100000, 0.45720000, 0.00095250
574, 0.45720000, 0.45720000, 0.00095250
575, 0.53340000, 0.45720000, 0.00095250
576, 0.60960000, 0.45720000, 0.00095250
577, 0.68580000, 0.45720000, 0.00095250
578, 0.76200000, 0.45720000, 0.00095250
579, 0.83820000, 0.45720000, 0.00095250
580, 0.91440000, 0.45720000, 0.00095250
581, 0.99060000, 0.45720000, 0.00095250
582, 1.06680000, 0.45720000, 0.00095250
583, 1.14300000, 0.45720000, 0.00095250
584, 1.21920000, 0.45720000, 0.00095250
585, 1.29540000, 0.45720000, 0.00095250
586, 1.37160000, 0.45720000, 0.00095250
587, 1.44780000, 0.45720000, 0.00095250
588, 1.52400000, 0.45720000, 0.00095250
589, 0.00000000, 0.53340000, 0.00095250
590, 0.07620000, 0.53340000, 0.00095250
591, 0.15240000, 0.53340000, 0.00095250
592, 0.22860000, 0.53340000, 0.00095250
593, 0.30480000, 0.53340000, 0.00095250
594, 0.38100000, 0.53340000, 0.00095250
595, 0.45720000, 0.53340000, 0.00095250
596, 0.53340000, 0.53340000, 0.00095250
597, 0.60960000, 0.53340000, 0.00095250
598, 0.68580000, 0.53340000, 0.00095250
599, 0.76200000, 0.53340000, 0.00095250
600, 0.83820000, 0.53340000, 0.00095250
601, 0.91440000, 0.53340000, 0.00095250
602, 0.99060000, 0.53340000, 0.00095250
603, 1.06680000, 0.53340000, 0.00095250
604, 1.14300000, 0.53340000, 0.00095250
605, 1.21920000, 0.53340000, 0.00095250
606, 1.29540000, 0.53340000, 0.00095250
607, 1.37160000, 0.53340000, 0.00095250
608, 1.44780000, 0.53340000, 0.00095250
609, 1.52400000, 0.53340000, 0.00095250
610, 0.00000000, 0.60960000, 0.00095250
611, 0.07620000, 0.60960000, 0.00095250
612, 0.15240000, 0.60960000, 0.00095250
613, 0.22860000, 0.60960000, 0.00095250
614, 0.30480000, 0.60960000, 0.00095250
615, 0.38100000, 0.60960000, 0.00095250
616, 0.45720000, 0.60960000, 0.00095250
617, 0.53340000, 0.60960000, 0.00095250
618, 0.60960000, 0.60960000, 0.00095250
619, 0.68580000, 0.60960000, 0.00095250
620, 0.76200000, 0.60960000, 0.00095250
621, 0.83820000, 0.60960000, 0.00095250
622, 0.91440000, 0.60960000, 0.00095250
623, 0.99060000, 0.60960000, 0.00095250
624, 1.06680000, 0.60960000, 0.00095250
625, 1.14300000, 0.60960000, 0.00095250
626, 1.21920000, 0.60960000, 0.00095250
627, 1.29540000, 0.60960000, 0.00095250
628, 1.37160000, 0.60960000, 0.00095250
629, 1.44780000, 0.60960000, 0.00095250
630, 1.52400000, 0.60960000, 0.00095250
631, 0.00000000, 0.68580000, 0.00095250
632, 0.07620000, 0.68580000, 0.00095250
633, 0.15240000, 0.68580000, 0.00095250
634, 0.22860000, 0.68580000, 0.00095250
635, 0.30480000, 0.68580000, 0.00095250
636, 0.38100000, 0.68580000, 0.00095250
637, 0.45720000, 0.68580000, 0.00095250
638, 0.53340000, 0.68580000, 0.00095250
639, 0.60960000, 0.68580000, 0.00095250
640, 0.68580000, 0.68580000, 0.00095250
641, 0.76200000, 0.68580000, 0.00095250
642, 0.83820000, 0.68580000, 0.00095250
643, 0.91440000, 0.68580000, 0.00095250
644, 0.99060000, 0.68580000, 0.00095250
645, 1.06680000, 0.68580000, 0.00095250
646, 1.14300000, 0.68580000, 0.00095250
647, 1.21920000, 0.68580000, 0.00095250
648, 1.29540000, 0.68580000, 0.00095250
649, 1.37160000, 0.68580000, 0.00095250
650, 1.44780000, 0.68580000, 0.00095250
651, 1.52400000, 0.68580000, 0.00095250
652, 0.00000000, 0.76200000, 0.00095250
653, 0.07620000, 0.76200000, 0.00095250
654, 0.15240000, 0.76200000, 0.00095250
655, 0.22860000, 0.76200000, 0.00095250
656, 0.30480000, 0.76200000, 0.00095250
657, 0.38100000, 0.76200000, 0.00095250
658, 0.45720000, 0.76200000, 0.00095250
659, 0.53340000, 0.76200000, 0.00095250
660, 0.60960000, 0.76200000, 0.00095250
661, 0.68580000, 0.76200000, 0.00095250
662, 0.76200000, 0.76200000, 0.00095250
663, 0.83820000, 0.76200000, 0.00095250
664, 0.91440000, 0.76200000, 0.00095250
665, 0.99060000, 0.76200000, 0.00095250
666, 1.06680000, 0.76200000, 0.00095250
667, 1.14300000, 0.76200000, 0.00095250
668, 1.21920000, 0.76200000, 0.00095250
669, 1.29540000, 0.76200000, 0.00095250
670, 1.37160000, 0.76200000, 0.00095250
671, 1.44780000, 0.76200000, 0.00095250
672, 1.52400000, 0.76200000, 0.00095250
673, 0.00000000, 0.83820000, 0.00095250
674, 0.07620000, 0.83820000, 0.00095250
675, 0.15240000, 0.83820000, 0.00095250
676, 0.22860000, 0.83820000, 0.00095250
677, 0.30480000, 0.83820000, 0.00095250
678, 0.38100000, 0.83820000, 0.00095250
679, 0.45720000, 0.83820000, 0.00095250
680, 0.53340000, 0.83820000, 0.00095250
681, 0.60960000, 0.83820000, 0.00095250
682, 0.68580000, 0.83820000, 0.00095250
683, 0.76200000, 0.83820000, 0.00095250
684, 0.83820000, 0.83820000, 0.00095250
685, 0.91440000, 0.83820000, 0.00095250
686, 0.99060000, 0.83820000, 0.00095250
687, 1.06680000, 0.83820000, 0.00095250
688, 1.14300000, 0.83820000, 0.00095250
689, 1.21920000, 0.83820000, 0.00095250
690, 1.29540000, 0.83820000, 0.00095250
691, 1.37160000, 0.83820000, 0.00095250
692, 1.44780000, 0.83820000, 0.00095250
693, 1.52400000, 0.83820000, 0.00095250
694, 0.00000000, 0.91440000, 0.00095250
695, 0.07620000, 0.91440000, 0.00095250
696, 0.15240000, 0.91440000, 0.00095250
697, 0.22860000, 0.91440000, 0.00095250
698, 0.30480000, 0.91440000, 0.00095250
699, 0.38100000, 0.91440000, 0.00095250
700, 0.45720000, 0.91440000, 0.00095250
701, 0.53340000, 0.91440000, 0.00095250
702, 0.60960000, 0.91440000, 0.00095250
703, 0.68580000, 0.91440000, 0.00095250
704, 0.76200000, 0.91440000, 0.00095250
705, 0.83820000, 0.91440000, 0.00095250
706, 0.91440000, 0.91440000, 0.00095250
707, 0.99060000, 0.91440000, 0.00095250
708, 1.06680000, 0.91440000, 0.00095250
709, 1.14300000, 0.91440000, 0.00095250
710, 1.21920000, 0.91440000, 0.00095250
711, 1.29540000, 0.91440000, 0.00095250
712, 1.37160000, 0.91440000, 0.00095250
713, 1.44780000, 0.91440000, 0.00095250
714, 1.52400000, 0.91440000, 0.00095250
715, 0.00000000, 0.99060000, 0.00095250
716, 0.07620000, 0.99060000, 0.00095250
717, 0.15240000, 0.99060000, 0.00095250
718, 0.22860000, 0.99060000, 0.00095250
719, 0.30480000, 0.99060000, 0.00095250
720, 0.38100000, 0.99060000, 0.00095250
721, 0.45720000, 0.99060000, 0.00095250
722, 0.53340000, 0.99060000, 0.00095250
723, 0.60960000, 0.99060000, 0.00095250
724, 0.68580000, 0.99060000, 0.00095250
725, 0.76200000, 0.99060000, 0.00095250
726, 0.83820000, 0.99060000, 0.00095250
727, 0.91440000, 0.99060000, 0.00095250
728, 0.99060000, 0.99060000, 0.00095250
729, 1.06680000, 0.99060000, 0.00095250
730, 1.14300000, 0.99060000, 0.00095250
731, 1.21920000, 0.99060000, 0.00095250
732, 1.29540000, 0.99060000, 0.00095250
733, 1.37160000, 0.99060000, 0.00095250
734, 1.44780000, 0.99060000, 0.00095250
735, 1.52400000, 0.99060000, 0.00095250
736, 0.00000000, 1.06680000, 0.00095250
737, 0.07620000, 1.06680000, 0.00095250
738, 0.15240000, 1.06680000, 0.00095250
739, 0.22860000, 1.06680000, 0.00095250
740, 0.30480000, 1.06680000, 0.00095250
741, 0.38100000, 1.06680000, 0.00095250
742, 0.45720000, 1.06680000, 0.00095250
743, 0.53340000, 1.06680000, 0.00095250
744, 0.60960000, 1.06680000, 0.00095250
745, 0.68580000, 1.06680000, 0.00095250
746, 0.76200000, 1.06680000, 0.00095250
747, 0.83820000, 1.06680000, 0.00095250
748, 0.91440000, 1.06680000, 0.00095250
749, 0.99060000, 1.06680000, 0.00095250
750, 1.06680000, 1.06680000, 0.00095250
751, 1.14300000, 1.06680000, 0.00095250
752, 1.21920000, 1.06680000, 0.00095250
753, 1.29540000, 1.06680000, 0.00095250
754, 1.37160000, 1.06680000, 0.00095250
755, 1.44780000, 1.06680000, 0.00095250
756, 1.52400000, 1.06680000, 0.00095250
757, 0.00000000, 1.14300000, 0.00095250
758, 0.07620000, 1.14300000, 0.00095250
759, 0.15240000, 1.14300000, 0.00095250
760, 0.22860000, 1.14300000, 0.00095250
761, 0.30480000, 1.14300000, 0.00095250
762, 0.38100000, 1.14300000, 0.00095250
763, 0.45720000, 1.14300000, 0.00095250
764, 0.53340000, 1.14300000, 0.00095250
765, 0.60960000, 1.14300000, 0.00095250
766, 0.68580000, 1.14300000, 0.00095250
767, 0.76200000, 1.14300000, 0.00095250
768, 0.83820000, 1.14300000, 0.00095250
769, 0.91440000, 1.14300000, 0.00095250
770, 0.99060000, 1.14300000, 0.00095250
771, 1.06680000, 1.14300000, 0.00095250
772, 1.14300000, 1.14300000, 0.00095250
773, 1.21920000, 1.14300000, 0.00095250
774, 1.29540000, 1.14300000, 0.00095250
775, 1.37160000, 1.14300000, 0.00095250
776, 1.44780000, 1.14300000, 0.00095250
777, 1.52400000, 1.14300000, 0.00095250
778, 0.00000000, 1.21920000, 0.00095250
779, 0.07620000, 1.21920000, 0.00095250
780, 0.15240000, 1.21920000, 0.00095250
781, 0.22860000, 1.21920000, 0.00095250
782, 0.30480000, 1.21920000, 0.00095250
783, 0.38100000, 1.21920000, 0.00095250
784, 0.45720000, 1.21920000, 0.00095250
785, 0.53340000, 1.21920000, 0.00095250
786, 0.60960000, 1.21920000, 0.00095250
787, 0.68580000, 1.21920000, 0.00095250
788, 0.76200000, 1.21920000, 0.00095250
789, 0.83820000, 1.21920000, 0.00095250
790, 0.91440000, 1.21920000, 0.00095250
791, 0.99060000, 1.21920000, 0.00095250
792, 1.06680000, 1.21920000, 0.00095250
793, 1.14300000, 1.21920000, 0.00095250
794, 1.21920000, 1.21920000, 0.00095250
795, 1.29540000, 1.21920000, 0.00095250
796, 1.37160000, 1.21920000, 0.00095250
797, 1.44780000, 1.21920000, 0.00095250
798, 1.52400000, 1.21920000, 0.00095250
799, 0.00000000, 1.29540000, 0.00095250
800, 0.07620000, 1.29540000, 0.00095250
801, 0.15240000, 1.29540000, 0.00095250
802, 0.22860000, 1.29540000, 0.00095250
803, 0.30480000, 1.29540000, 0.00095250
804, 0.38100000, 1.29540000, 0.00095250
805, 0.45720000, 1.29540000, 0.00095250
806, 0.53340000, 1.29540000, 0.00095250
807, 0.60960000, 1.29540000, 0.00095250
808, 0.68580000, 1.29540000, 0.00095250
809, 0.76200000, 1.29540000, 0.00095250
810, 0.83820000, 1.29540000, 0.00095250
811, 0.91440000, 1.29540000, 0.00095250
812, 0.99060000, 1.29540000, 0.00095250
813, 1.06680000, 1.29540000, 0.00095250
814, 1.14300000, 1.29540000, 0.00095250
815, 1.21920000, 1.29540000, 0.00095250
816, 1.29540000, 1.29540000, 0.00095250
817, 1.37160000, 1.29540000, 0.00095250
818, 1.44780000, 1.29540000, 0.00095250
819, 1.52400000, 1.29540000, 0.00095250
820, 0.00000000, 1.37160000, 0.00095250
821, 0.07620000, 1.37160000, 0.00095250
822, 0.15240000, 1.37160000, 0.00095250
823, 0.22860000, 1.37160000, 0.00095250
824, 0.30480000, 1.37160000, 0.00095250
825, 0.38100000, 1.37160000, 0.00095250
826, 0.45720000, 1.37160000, 0.00095250
827, 0.53340000, 1.37160000, 0.00095250
828, 0.60960000, 1.37160000, 0.00095250
829, 0.68580000, 1.37160000, 0.00095250
830, 0.76200000, 1.37160000, 0.00095250
831, 0.83820000, 1.37160000, 0.00095250
832, 0.91440000, 1.37160000, 0.00095250
833, 0.99060000, 1.37160000, 0.00095250
834, 1.06680000, 1.37160000, 0.00095250
835, 1.14300000, 1.37160000, 0.00095250
836, 1.21920000, 1.37160000, 0.00095250
837, 1.29540000, 1.37160000, 0.00095250
838, 1.37160000, 1.37160000, 0.00095250
839, 1.44780000, 1.37160000, 0.00095250
840, 1.52400000, 1.37160000, 0.00095250
841, 0.00000000, 1.44780000, 0.00095250
842, 0.07620000, 1.44780000, 0.00095250
843, 0.15240000, 1.44780000, 0.00095250
844, 0.22860000, 1.44780000, 0.00095250
845, 0.30480000, 1.44780000, 0.00095250
846, 0.38100000, 1.44780000, 0.00095250
847, 0.45720000, 1.44780000, 0.00095250
848, 0.53340000, 1.44780000, 0.00095250
849, 0.60960000, 1.44780000, 0.00095250
850, 0.68580000, 1.44780000, 0.00095250
851, 0.76200000, 1.44780000, 0.00095250
852, 0.83820000, 1.44780000, 0.00095250
853, 0.91440000, 1.44780000, 0.00095250
854, 0.99060000, 1.44780000, 0.00095250
855, 1.06680000, 1.44780000, 0.00095250
856, 1.14300000, 1.44780000, 0.00095250
857, 1.21920000, 1.44780000, 0.00095250
858, 1.29540000, 1.44780000, 0.00095250
859, 1.37160000, 1.44780000, 0.00095250
860, 1.44780000, 1.44780000, 0.00095250
861, 1.52400000, 1.44780000, 0.00095250
862, 0.00000000, 1.52400000, 0.00095250
863, 0.07620000, 1.52400000, 0.00095250
864, 0.15240000, 1.52400000, 0.00095250
865, 0.22860000, 1.52400000, 0.00095250
866, 0.30480000, 1.52400000, 0.00095250
867, 0.38100000, 1.52400000, 0.00095250
868, 0.45720000, 1.52400000, 0.00095250
869, 0.53340000, 1.52400000, 0.00095250
870, 0.60960000, 1.52400000, 0.00095250
871, 0.68580000, 1.52400000, 0.00095250
872, 0.76200000, 1.52400000, 0.00095250
873, 0.83820000, 1.52400000, 0.00095250
874, 0.91440000, 1.52400000, 0.00095250
875, 0.99060000, 1.52400000, 0.00095250
876, 1.06680000, 1.52400000, 0.00095250
877, 1.14300000, 1.52400000, 0.00095250
878, 1.21920000, 1.52400000, 0.00095250
879, 1.29540000, 1.52400000, 0.00095250
880, 1.37160000, 1.52400000, 0.00095250
881, 1.44780000, 1.52400000, 0.00095250
882, 1.52400000, 1.52400000, 0.00095250
883, 0.00000000, 0.00000000, 0.00190500
884, 0.07620000, 0.00000000, 0.00190500
885, 0.15240000, 0.00000000, 0.00190500
886, 0.22860000, 0.00000000, 0.00190500
887, 0.30480000, 0.00000000, 0.00190500
888, 0.38100000, 0.00000000, 0.00190500
889, 0.45720000, 0.00000000, 0.00190500
890, 0.53340000, 0.00000000, 0.00190500
891, 0.60960000, 0.00000000, 0.00190500
892, 0.68580000, 0.00000000, 0.00190500
893, 0.76200000, 0.00000000, 0.00190500
894, 0.83820000, 0.00000000, 0.00190500
895, 0.91440000, 0.00000000, 0.00190500
896, 0.99060000, 0.00000000, 0.00190500
897, 1.06680000, 0.00000000, 0.00190500
898, 1.14300000, 0.00000000, 0.00190500
899, 1.21920000, 0.00000000, 0.00190500
900, 1.29540000, 0.00000000, 0.00190500
901, 1.37160000, 0.00000000, 0.00190500
902, 1.44780000, 0.00000000, 0.00190500
903, 1.52400000, 0.00000000, 0.00190500
904, 0.00000000, 0.07620000, 0.00190500
905, 0.07620000, 0.07620000, 0.00190500
906, 0.15240000, 0.07620000, 0.00190500
907, 0.22860000, 0.07620000, 0.00190500
908, 0.30480000, 0.07620000, 0.00190500
909, 0.38100000, 0.07620000, 0.00190500
910, 0.45720000, 0.07620000, 0.00190500
911, 0.53340000, 0.07620000, 0.00190500
912, 0.60960000, 0.07620000, 0.00190500
913, 0.68580000, 0.07620000, 0.00190500
914, 0.76200000, 0.07620000, 0.00190500
915, 0.83820000, 0.07620000, 0.00190500
916, 0.91440000, 0.07620000, 0.00190500
917, 0.99060000, 0.07620000, 0.00190500
918, 1.06680000, 0.07620000, 0.00190500
919, 1.14300000, 0.07620000, 0.00190500
920, 1.21920000, 0.07620000, 0.00190500
921, 1.29540000, 0.07620000, 0.00190500
922, 1.37160000, 0.07620000, 0.00190500
923, 1.44780000, 0.07620000, 0.00190500
924, 1.52400000, 0.07620000, 0.00190500
925, 0.00000000, 0.15240000, 0.00190500
926, 0.07620000, 0.15240000, 0.00190500
927, 0.15240000, 0.15240000, 0.00190500
928, 0.22860000, 0.15240000, 0.00190500
929, 0.30480000, 0.15240000, 0.00190500
930, 0.38100000, 0.15240000, 0.00190500
931, 0.45720000, 0.15240000, 0.00190500
932, 0.53340000, 0.15240000, 0.00190500
933, 0.60960000, 0.15240000, 0.00190500
934, 0.68580000, 0.15240000, 0.00190500
935, 0.76200000, 0.15240000, 0.00190500
936, 0.83820000, 0.15240000, 0.00190500
937, 0.91440000, 0.15240000, 0.00190500
938, 0.99060000, 0.15240000, 0.00190500
939, 1.06680000, 0.15240000, 0.00190500
940, 1.14300000, 0.15240000, 0.00190500
941, 1.21920000, 0.15240000, 0.00190500
942, 1.29540000, 0.15240000, 0.00190500
943, 1.37160000, 0.15240000, 0.00190500
944, 1.44780000, 0.15240000, 0.00190500
945, 1.52400000, 0.15240000, 0.00190500
946, 0.00000000, 0.22860000, 0.00190500
947, 0.07620000, 0.22860000, 0.00190500
948, 0.15240000, 0.22860000, 0.00190500
949, 0.22860000, 0.22860000, 0.00190500
950, 0.30480000, 0.22860000, 0.00190500
951, 0.38100000, 0.22860000, 0.00190500
952, 0.45720000, 0.22860000, 0.00190500
953, 0.53340000, 0.22860000, 0.00190500
954, 0.60960000, 0.22860000, 0.00190500
955, 0.68580000, 0.22860000, 0.00190500
956, 0.76200000, 0.22860000, 0.00190500
957, 0.83820000, 0.22860000, 0.00190500
958, 0.91440000, 0.22860000, 0.00190500
959, 0.99060000, 0.22860000, 0.00190500
960, 1.06680000, 0.22860000, 0.00190500
961, 1.14300000, 0.22860000, 0.00190500
962, 1.21920000, 0.22860000, 0.00190500
963, 1.29540000, 0.22860000, 0.00190500
964, 1.37160000, 0.22860000, 0.00190500
965, 1.44780000, 0.22860000, 0.00190500
966, 1.52400000, 0.22860000, 0.00190500
967, 0.00000000, 0.30480000, 0.00190500
968, 0.07620000, 0.30480000, 0.00190500
969, 0.15240000, 0.30480000, 0.00190500
970, 0.22860000, 0.30480000, 0.00190500
971, 0.30480000, 0.30480000, 0.00190500
972, 0.38100000, 0.30480000, 0.00190500
973, 0.45720000, 0.30480000, 0.00190500
974, 0.53340000, 0.30480000, 0.00190500
975, 0.60960000, 0.30480000, 0.00190500
976, 0.68580000, 0.30480000, 0.00190500
977, 0.76200000, 0.30480000, 0.00190500
978, 0.83820000, 0.30480000, 0.00190500
979, 0.91440000, 0.30480000, 0.00190500
980, 0.99060000, 0.30480000, 0.00190500
981, 1.06680000, 0.30480000, 0.00190500
982, 1.14300000, 0.30480000, 0.00190500
983, 1.21920000, 0.30480000, 0.00190500
984, 1.29540000, 0.30480000, 0.00190500
985, 1.37160000, 0.30480000, 0.00190500
986, 1.44780000, 0.30480000, 0.00190500
987, 1.52400000, 0.30480000, 0.00190500
988, 0.00000000, 0.38100000, 0.00190500
989, 0.07620000, 0.38100000, 0.00190500
990, 0.15240000, 0.38100000, 0.00190500
991, 0.22860000, 0.38100000, 0.00190500
992, 0.30480000, 0.38100000, 0.00190500
993, 0.38100000, 0.38100000, 0.00190500
994, 0.45720000, 0.38100000, 0.00190500
995, 0.53340000, 0.38100000, 0.00190500
996, 0.60960000, 0.38100000, 0.00190500
997, 0.68580000, 0.38100000, 0.00190500
998, 0.76200000, 0.38100000, 0.00190500
999, 0.83820000, 0.38100000, 0.00190500
1000, 0.91440000, 0.38100000, 0.00190500
1001, 0.99060000, 0.38100000, 0.00190500
1002, 1.06680000, 0.38100000, 0.00190500
1003, 1.14300000, 0.38100000, 0.00190500
1004, 1.21920000, 0.38100000, 0.00190500
1005, 1.29540000, 0.38100000, 0.00190500
1006, 1.37160000, 0.38100000, 0.00190500
1007, 1.44780000, 0.38100000, 0.00190500
1008, 1.52400000, 0.38100000, 0.00190500
1009, 0.00000000, 0.45720000, 0.00190500
1010, 0.07620000, 0.45720000, 0.00190500
1011, 0.15240000, 0.45720000, 0.00190500
1012, 0.22860000, 0.45720000, 0.00190500
1013, 0.30480000, 0.45720000, 0.00190500
1014, 0.38100000, 0.45720000, 0.00190500
1015, 0.45720000, 0.45720000, 0.00190500
1016, 0.53340000, 0.45720000, 0.00190500
1017, 0.60960000, 0.45720000, 0.00190500
1018, 0.68580000, 0.45720000, 0.00190500
1019, 0.76200000, 0.45720000, 0.00190500
1020, 0.83820000, 0.45720000, 0.00190500
1021, 0.91440000, 0.45720000, 0.00190500
1022, 0.99060000, 0.45720000, 0.00190500
1023, 1.06680000, 0.45720000, 0.00190500
1024, 1.14300000, 0.45720000, 0.00190500
1025, 1.21920000, 0.45720000, 0.00190500
1026, 1.29540000, 0.45720000, 0.00190500
1027, 1.37160000, 0.45720000, 0.00190500
1028, 1.44780000, 0.45720000, 0.00190500
1029, 1.52400000, 0.45720000, 0.00190500
1030, 0.00000000, 0.53340000, 0.00190500
1031, 0.07620000, 0.53340000, 0.00190500
1032, 0.15240000, 0.53340000, 0.00190500
1033, 0.22860000, 0.53340000, 0.00190500
1034, 0.30480000, 0.53340000, 0.00190500
1035, 0.38100000, 0.53340000, 0.00190500
1036, 0.45720000, 0.53340000, 0.00190500
1037, 0.53340000, 0.53340000, 0.00190500
1038, 0.60960000, 0.53340000, 0.00190500
1039, 0.68580000, 0.53340000, 0.00190500
1040, 0.76200000, 0.53340000, 0.00190500
1041, 0.83820000, 0.53340000, 0.00190500
1042, 0.91440000, 0.53340000, 0.00190500
1043, 0.99060000, 0.53340000, 0.00190500
1044, 1.06680000, 0.53340000, 0.00190500
1045, 1.14300000, 0.53340000, 0.00190500
1046, 1.21920000, 0.53340000, 0.00190500
1047, 1.29540000, 0.53340000, 0.00190500
1048, 1.37160000, 0.53340000, 0.00190500
1049, 1.44780000, 0.53340000, 0.00190500
1050, 1.52400000, 0.53340000, 0.00190500
1051, 0.00000000, 0.60960000, 0.00190500
1052, 0.07620000, 0.60960000, 0.00190500
1053, 0.15240000, 0.60960000, 0.00190500
1054, 0.22860000, 0.60960000, 0.00190500
1055, 0.30480000, 0.60960000, 0.00190500
1056, 0.38100000, 0.60960000, 0.00190500
1057, 0.45720000, 0.60960000, 0.00190500
1058, 0.53340000, 0.60960000, 0.00190500
1059, 0.60960000, 0.60960000, 0.00190500
1060, 0.68580000, 0.60960000, 0.00190500
1061, 0.76200000, 0.60960000, 0.00190500
1062, 0.83820000, 0.60960000, 0.00190500
1063, 0.91440000, 0.60960000, 0.00190500
1064, 0.99060000, 0.60960000, 0.00190500
1065, 1.06680000, 0.60960000, 0.00190500
1066, 1.14300000, 0.60960000, 0.00190500
1067, 1.21920000, 0.60960000, 0.00190500
1068, 1.29540000, 0.60960000, 0.00190500
1069, 1.37160000, 0.60960000, 0.00190500
1070, 1.44780000, 0.60960000, 0.00190500
1071, 1.52400000, 0.60960000, 0.00190500
1072, 0.00000000, 0.68580000, 0.00190500
1073, 0.07620000, 0.68580000, 0.00190500
1074, 0.15240000, 0.68580000, 0.00190500
1075, 0.22860000, 0.68580000, 0.00190500
1076, 0.30480000, 0.68580000, 0.00190500
1077, 0.38100000, 0.68580000, 0.00190500
1078, 0.45720000, 0.68580000, 0.00190500
1079, 0.53340000, 0.68580000, 0.00190500
1080, 0.60960000, 0.68580000, 0.00190500
1081, 0.68580000, 0.68580000, 0.00190500
1082, 0.76200000, 0.68580000, 0.00190500
1083, 0.83820000, 0.68580000, 0.00190500
1084, 0.91440000, 0.68580000, 0.00190500
1085, 0.99060000, 0.68580000, 0.00190500
1086, 1.06680000, 0.68580000, 0.00190500
1087, 1.14300000, 0.68580000, 0.00190500
1088, 1.21920000, 0.68580000, 0.00190500
1089, 1.29540000, 0.68580000, 0.00190500
1090, 1.37160000, 0.68580000, 0.00190500
1091, 1.44780000, 0.68580000, 0.00190500
1092, 1.52400000, 0.68580000, 0.00190500
1093, 0.00000000, 0.76200000, 0.00190500
1094, 0.07620000, 0.76200000, 0.00190500
1095, 0.15240000, 0.76200000, 0.00190500
1096, 0.22860000, 0.76200000, 0.00190500
1097, 0.30480000, 0.76200000, 0.00190500
1098, 0.38100000, 0.76200000, 0.00190500
1099, 0.45720000, 0.76200000, 0.00190500
1100, 0.53340000, 0.76200000, 0.00190500
1101, 0.60960000, 0.76200000, 0.00190500
1102, 0.68580000, 0.76200000, 0.00190500
1103, 0.76200000, 0.76200000, 0.00190500
1104, 0.83820000, 0.76200000, 0.00190500
1105, 0.91440000, 0.76200000, 0.00190500
1106, 0.99060000, 0.76200000, 0.00190500
1107, 1.06680000, 0.76200000, 0.00190500
1108, 1.14300000, 0.76200000, 0.00190500
1109, 1.21920000, 0.76200000, 0.00190500
1110, 1.29540000, 0.76200000, 0.00190500
1111, 1.37160000, 0.76200000, 0.00190500
1112, 1.44780000, 0.76200000, 0.00190500
1113, 1.52400000, 0.76200000, 0.00190500
1114, 0.00000000, 0.83820000, 0.00190500
1115, 0.07620000, 0.83820000, 0.00190500
1116, 0.15240000, 0.83820000, 0.00190500
1117, 0.22860000, 0.83820000, 0.00190500
1118, 0.30480000, 0.83820000, 0.00190500
1119, 0.38100000, 0.83820000, 0.00190500
1120, 0.45720000, 0.83820000, 0.00190500
1121, 0.53340000, 0.83820000, 0.00190500
1122, 0.60960000, 0.83820000, 0.00190500
1123, 0.68580000, 0.83820000, 0.00190500
1124, 0.76200000, 0.83820000, 0.00190500
1125, 0.83820000, 0.83820000, 0.00190500
1126, 0.91440000, 0.83820000, 0.00190500
1127, 0.99060000, 0.83820000, 0.00190500
1128, 1.06680000, 0.83820000, 0.00190500
1129, 1.14300000, 0.83820000, 0.00190500
1130, 1.21920000, 0.83820000, 0.00190500
1131, 1.29540000, 0.83820000, 0.00190500
1132, 1.37160000, 0.83820000, 0.00190500
1133, 1.44780000, 0.83820000, 0.00190500
1134, 1.52400000, 0.83820000, 0.00190500
1135, 0.00000000, 0.91440000, 0.00190500
1136, 0.07620000, 0.91440000, 0.00190500
1137, 0.15240000, 0.91440000, 0.00190500
1138, 0.22860000, 0.91440000, 0.00190500
1139, 0.30480000, 0.91440000, 0.00190500
1140, 0.38100000, 0.91440000, 0.00190500
1141, 0.45720000, 0.91440000, 0.00190500
1142, 0.53340000, 0.91440000, 0.00190500
1143, 0.60960000, 0.91440000, 0.00190500
1144, 0.68580000, 0.91440000, 0.00190500
1145, 0.76200000, 0.91440000, 0.00190500
1146, 0.83820000, 0.91440000, 0.00190500
1147, 0.91440000, 0.91440000, 0.00190500
1148, 0.99060000, 0.91440000, 0.00190500
1149, 1.06680000, 0.91440000, 0.00190500
1150, 1.14300000, 0.91440000, 0.00190500
1151, 1.21920000, 0.91440000, 0.00190500
1152, 1.29540000, 0.91440000, 0.00190500
1153, 1.37160000, 0.91440000, 0.00190500
1154, 1.44780000, 0.91440000, 0.00190500
1155, 1.52400000, 0.91440000, 0.00190500
1156, 0.00000000, 0.99060000, 0.00190500
1157, 0.07620000, 0.99060000, 0.00190500
1158, 0.15240000, 0.99060000, 0.00190500
1159, 0.22860000, 0.99060000, 0.00190500
1160, 0.30480000, 0.99060000, 0.00190500
1161, 0.38100000, 0.99060000, 0.00190500
1162, 0.45720000, 0.99060000, 0.00190500
1163, 0.53340000, 0.99060000, 0.00190500
1164, 0.60960000, 0.99060000, 0.00190500
1165, 0.68580000, 0.99060000, 0.00190500
1166, 0.76200000, 0.99060000, 0.00190500
1167, 0.83820000, 0.99060000, 0.00190500
1168, 0.91440000, 0.99060000, 0.00190500
1169, 0.99060000, 0.99060000, 0.00190500
1170, 1.06680000, 0.99060000, 0.00190500
1171, 1.14300000, 0.99060000, 0.00190500
1172, 1.21920000, 0.99060000, 0.00190500
1173, 1.29540000, 0.99060000, 0.00190500
1174, 1.37160000, 0.99060000, 0.00190500
1175, 1.44780000, 0.99060000, 0.00190500
1176, 1.52400000, 0.99060000, 0.00190500
1177, 0.00000000, 1.06680000, 0.00190500
1178, 0.07620000, 1.06680000, 0.00190500
1179, 0.15240000, 1.06680000, 0.00190500
1180, 0.22860000, 1.06680000, 0.00190500
1181, 0.30480000, 1.06680000, 0.00190500
1182, 0.38100000, 1.06680000, 0.00190500
1183, 0.45720000, 1.06680000, 0.00190500
1184, 0.53340000, 1.06680000, 0.00190500
1185, 0.60960000, 1.06680000, 0.00190500
1186, 0.68580000, 1.06680000, 0.00190500
1187, 0.76200000, 1.06680000, 0.00190500
1188, 0.83820000, 1.06680000, 0.00190500
1189, 0.91440000, 1.06680000, 0.00190500
1190, 0.99060000, 1.06680000, 0.00190500
1191, 1.06680000, 1.06680000, 0.00190500
1192, 1.14300000, 1.06680000, 0.00190500
1193, 1.21920000, 1.06680000, 0.00190500
1194, 1.29540000, 1.06680000, 0.00190500
1195, 1.37160000, 1.06680000, 0.00190500
1196, 1.44780000, 1.06680000, 0.00190500
1197, 1.52400000, 1.06680000, 0.00190500
1198, 0.00000000, 1.14300000, 0.00190500
1199, 0.07620000, 1.14300000, 0.00190500
1200, 0.15240000, 1.14300000, 0.00190500
1201, 0.22860000, 1.14300000, 0.00190500
1202, 0.30480000, 1.14300000, 0.00190500
1203, 0.38100000, 1.14300000, 0.00190500
1204, 0.45720000, 1.14300000, 0.00190500
1205, 0.53340000, 1.14300000, 0.00190500
1206, 0.60960000, 1.14300000, 0.00190500
1207, 0.68580000, 1.14300000, 0.00190500
1208, 0.76200000, 1.14300000, 0.00190500
1209, 0.83820000, 1.14300000, 0.00190500
1210, 0.91440000, 1.14300000, 0.00190500
1211, 0.99060000, 1.14300000, 0.00190500
1212, 1.06680000, 1.14300000, 0.00190500
1213, 1.14300000, 1.14300000, 0.00190500
1214, 1.21920000, 1.14300000, 0.00190500
1215, 1.29540000, 1.14300000, 0.00190500
1216, 1.37160000, 1.14300000, 0.00190500
1217, 1.44780000, 1.14300000, 0.00190500
1218, 1.52400000, 1.14300000, 0.00190500
1219, 0.00000000, 1.21920000, 0.00190500
1220, 0.07620000, 1.21920000, 0.00190500
1221, 0.15240000, 1.21920000, 0.00190500
1222, 0.22860000, 1.21920000, 0.00190500
1223, 0.30480000, 1.21920000, 0.00190500
1224, 0.38100000, 1.21920000, 0.00190500
1225, 0.45720000, 1.21920000, 0.00190500
1226, 0.53340000, 1.21920000, 0.00190500
1227, 0.60960000, 1.21920000, 0.00190500
1228, 0.68580000, 1.21920000, 0.00190500
1229, 0.76200000, 1.21920000, 0.00190500
1230, 0.83820000, 1.21920000, 0.00190500
1231, 0.91440000, 1.21920000, 0.00190500
1232, 0.99060000, 1.21920000, 0.00190500
1233, 1.06680000, 1.21920000, 0.00190500
1234, 1.14300000, 1.21920000, 0.00190500
1235, 1.21920000, 1.21920000, 0.00190500
1236, 1.29540000, 1.21920000, 0.00190500
1237, 1.37160000, 1.21920000, 0.00190500
1238, 1.44780000, 1.21920000, 0.00190500
1239, 1.52400000, 1.21920000, 0.00190500
1240, 0.00000000, 1.29540000, 0.00190500
1241, 0.07620000, 1.29540000, 0.00190500
1242, 0.15240000, 1.29540000, 0.00190500
1243, 0.22860000, 1.29540000, 0.00190500
1244, 0.30480000, 1.29540000, 0.00190500
1245, 0.38100000, 1.29540000, 0.00190500
1246, 0.45720000, 1.29540000, 0.00190500
1247, 0.53340000, 1.29540000, 0.00190500
1248, 0.60960000, 1.29540000, 0.00190500
1249, 0.68580000, 1.29540000, 0.00190500
1250, 0.76200000, 1.29540000, 0.00190500
1251, 0.83820000, 1.29540000, 0.00190500
1252, 0.91440000, 1.29540000, 0.00190500
1253, 0.99060000, 1.29540000, 0.00190500
1254, 1.06680000, 1.29540000, 0.00190500
1255, 1.14300000, 1.29540000, 0.00190500
1256, 1.21920000, 1.29540000, 0.00190500
1257, 1.29540000, 1.29540000, 0.00190500
1258, 1.37160000, 1.29540000, 0.00190500
1259, 1.44780000, 1.29540000, 0.00190500
1260, 1.52400000, 1.29540000, 0.00190500
1261, 0.00000000, 1.37160000, 0.00190500
1262, 0.07620000, 1.37160000, 0.00190500
1263, 0.15240000, 1.37160000, 0.00190500
1264, 0.22860000, 1.37160000, 0.00190500
1265, 0.30480000, 1.37160000, 0.00190500
1266, 0.38100000, 1.37160000, 0.00190500
1267, 0.45720000, 1.37160000, 0.00190500
1268, 0.53340000, 1.37160000, 0.00190500
1269, 0.60960000, 1.37160000, 0.00190500
1270, 0.68580000, 1.37160000, 0.00190500
1271, 0.76200000, 1.37160000, 0.00190500
1272, 0.83820000, 1.37160000, 0.00190500
1273, 0.91440000, 1.37160000, 0.00190500
1274, 0.99060000, 1.37160000, 0.00190500
1275, 1.06680000, 1.37160000, 0.00190500
1276, 1.14300000, 1.37160000, 0.00190500
1277, 1.21920000, 1.37160000, 0.00190500
1278, 1.29540000, 1.37160000, 0.00190500
1279, 1.37160000, 1.37160000, 0.00190500
1280, 1.44780000, 1.37160000, 0.00190500
1281, 1.52400000, 1.37160000, 0.00190500
1282, 0.00000000, 1.44780000, 0.00190500
1283, 0.07620000, 1.44780000, 0.00190500
1284, 0.15240000, 1.44780000, 0.00190500
1285, 0.22860000, 1.44780000, 0.00190500
1286, 0.30480000, 1.44780000, 0.00190500
1287, 0.38100000, 1.44780000, 0.00190500
1288, 0.45720000, 1.44780000, 0.00190500
1289, 0.53340000, 1.44780000, 0.00190500
1290, 0.60960000, 1.44780000, 0.00190500
1291, 0.68580000, 1.44780000, 0.00190500
1292, 0.76200000, 1.44780000, 0.00190500
1293, 0.83820000, 1.44780000, 0.00190500
1294, 0.91440000, 1.44780000, 0.00190500
1295, 0.99060000, 1.44780000, 0.00190500
1296, 1.06680000, 1.44780000, 0.00190500
1297, 1.14300000, 1.44780000, 0.00190500
1298, 1.21920000, 1.44780000, 0.00190500
1299, 1.29540000, 1.44780000, 0.00190500
1300, 1.37160000, 1.44780000, 0.00190500
1301, 1.44780000, 1.44780000, 0.00190500
1302, 1.52400000, 1.44780000, 0.00190500
1303, 0.00000000, 1.52400000, 0.00190500
1304, 0.07620000, 1.52400000, 0.00190500
1305, 0.15240000, 1.52400000, 0.00190500
1306, 0.22860000, 1.52400000, 0.00190500
1307, 0.30480000, 1.52400000, 0.00190500
1308, 0.38100000, 1.52400000, 0.00190500
1309, 0.45720000, 1.52400000, 0.00190500
1310, 0.53340000, 1.52400000, 0.00190500
1311, 0.60960000, 1.52400000, 0.00190500
1312, 0.68580000, 1.52400000, 0.00190500
1313, 0.76200000, 1.52400000, 0.00190500
1314, 0.83820000, 1.52400000, 0.00190500
1315, 0.91440000, 1.52400000, 0.00190500
1316, 0.99060000, 1.52400000, 0.00190500
1317, 1.06680000, 1.52400000, 0.00190500
1318, 1.14300000, 1.52400000, 0.00190500
1319, 1.21920000, 1.52400000, 0.00190500
1320, 1.29540000, 1.52400000, 0.00190500
1321, 1.37160000, 1.52400000, 0.00190500
1322, 1.44780000, 1.52400000, 0.00190500
1323, 1.52400000, 1.52400000, 0.00190500
1324, 0.00000000, 0.00000000, 0.00285750
1325, 0.07620000, 0.00000000, 0.00285750
1326, 0.15240000, 0.00000000, 0.00285750
1327, 0.22860000, 0.00000000, 0.00285750
1328, 0.30480000, 0.00000000, 0.00285750
1329, 0.38100000, 0.00000000, 0.00285750
1330, 0.45720000, 0.00000000, 0.00285750
1331, 0.53340000, 0.00000000, 0.00285750
1332, 0.60960000, 0.00000000, 0.00285750
1333, 0.68580000, 0.00000000, 0.00285750
1334, 0.76200000, 0.00000000, 0.00285750
1335, 0.83820000, 0.00000000, 0.00285750
1336, 0.91440000, 0.00000000, 0.00285750
1337, 0.99060000, 0.00000000, 0.00285750
1338, 1.06680000, 0.00000000, 0.00285750
1339, 1.14300000, 0.00000000, 0.00285750
1340, 1.21920000, 0.00000000, 0.00285750
1341, 1.29540000, 0.00000000, 0.00285750
1342, 1.37160000, 0.00000000, 0.00285750
1343, 1.44780000, 0.00000000, 0.00285750
1344, 1.52400000, 0.00000000, 0.00285750
1345, 0.00000000, 0.07620000, 0.00285750
1346, 0.07620000, 0.07620000, 0.00285750
1347, 0.15240000, 0.07620000, 0.00285750
1348, 0.22860000, 0.07620000, 0.00285750
1349, 0.30480000, 0.07620000, 0.00285750
1350, 0.38100000, 0.07620000, 0.00285750
1351, 0.45720000, 0.07620000, 0.00285750
1352, 0.53340000, 0.07620000, 0.00285750
1353, 0.60960000, 0.07620000, 0.00285750
1354, 0.68580000, 0.07620000, 0.00285750
1355, 0.76200000, 0.07620000, 0.00285750
1356, 0.83820000, 0.07620000, 0.00285750
1357, 0.91440000, 0.07620000, 0.00285750
1358, 0.99060000, 0.07620000, 0.00285750
1359, 1.06680000, 0.07620000, 0.00285750
1360, 1.14300000, 0.07620000, 0.00285750
1361, 1.21920000, 0.07620000, 0.00285750
1362, 1.29540000, 0.07620000, 0.00285750
1363, 1.37160000, 0.07620000, 0.00285750
1364, 1.44780000, 0.07620000, 0.00285750
1365, 1.52400000, 0.07620000, 0.00285750
1366, 0.00000000, 0.15240000, 0.00285750
1367, 0.07620000, 0.15240000, 0.00285750
1368, 0.15240000, 0.15240000, 0.00285750
1369, 0.22860000, 0.15240000, 0.00285750
1370, 0.30480000, 0.15240000, 0.00285750
1371, 0.38100000, 0.15240000, 0.00285750
1372, 0.45720000, 0.15240000, 0.00285750
1373, 0.53340000, 0.15240000, 0.00285750
1374, 0.60960000, 0.15240000, 0.00285750
1375, 0.68580000, 0.15240000, 0.00285750
1376, 0.76200000, 0.15240000, 0.00285750
1377, 0.83820000, 0.15240000, 0.00285750
1378, 0.91440000, 0.15240000, 0.00285750
1379, 0.99060000, 0.15240000, 0.00285750
1380, 1.06680000, 0.15240000, 0.00285750
1381, 1.14300000, 0.15240000, 0.00285750
1382, 1.21920000, 0.15240000, 0.00285750
1383, 1.29540000, 0.15240000, 0.00285750
1384, 1.37160000, 0.15240000, 0.00285750
1385, 1.44780000, 0.15240000, 0.00285750
1386, 1.52400000, 0.15240000, 0.00285750
1387, 0.00000000, 0.22860000, 0.00285750
1388, 0.07620000, 0.22860000, 0.00285750
1389, 0.15240000, 0.22860000, 0.00285750
1390, 0.22860000, 0.22860000, 0.00285750
1391, 0.30480000, 0.22860000, 0.00285750
1392, 0.38100000, 0.22860000, 0.00285750
1393, 0.45720000, 0.22860000, 0.00285750
1394, 0.53340000, 0.22860000, 0.00285750
1395, 0.60960000, 0.22860000, 0.00285750
1396, 0.68580000, 0.22860000, 0.00285750
1397, 0.76200000, 0.22860000, 0.00285750
1398, 0.83820000, 0.22860000, 0.00285750
1399, 0.91440000, 0.22860000, 0.00285750
1400, 0.99060000, 0.22860000, 0.00285750
1401, 1.06680000, 0.22860000, 0.00285750
1402, 1.14300000, 0.22860000, 0.00285750
1403, 1.21920000, 0.22860000, 0.00285750
1404, 1.29540000, 0.22860000, 0.00285750
1405, 1.37160000, 0.22860000, 0.00285750
1406, 1.44780000, 0.22860000, 0.00285750
1407, 1.52400000, 0.22860000, 0.00285750
1408, 0.00000000, 0.30480000, 0.00285750
1409, 0.07620000, 0.30480000, 0.00285750
1410, 0.15240000, 0.30480000, 0.00285750
1411, 0.22860000, 0.30480000, 0.00285750
1412, 0.30480000, 0.30480000, 0.00285750
1413, 0.38100000, 0.30480000, 0.00285750
1414, 0.45720000, 0.30480000, 0.00285750
1415, 0.53340000, 0.30480000, 0.00285750
1416, 0.60960000, 0.30480000, 0.00285750
1417, 0.68580000, 0.30480000, 0.00285750
1418, 0.76200000, 0.30480000, 0.00285750
1419, 0.83820000, 0.30480000, 0.00285750
1420, 0.91440000, 0.30480000, 0.00285750
1421, 0.99060000, 0.30480000, 0.00285750
1422, 1.06680000, 0.30480000, 0.00285750
1423, 1.14300000, 0.30480000, 0.00285750
1424, 1.21920000, 0.30480000, 0.00285750
1425, 1.29540000, 0.30480000, 0.00285750
1426, 1.37160000, 0.30480000, 0.00285750
1427, 1.44780000, 0.30480000, 0.00285750
1428, 1.52400000, 0.30480000, 0.00285750
1429, 0.00000000, 0.38100000, 0.00285750
1430, 0.07620000, 0.38100000, 0.00285750
1431, 0.15240000, 0.38100000, 0.00285750
1432, 0.22860000, 0.38100000, 0.00285750
1433, 0.30480000, 0.38100000, 0.00285750
1434, 0.38100000, 0.38100000, 0.00285750
1435, 0.45720000, 0.38100000, 0.00285750
1436, 0.53340000, 0.38100000, 0.00285750
1437, 0.60960000, 0.38100000, 0.00285750
1438, 0.68580000, 0.38100000, 0.00285750
1439, 0.76200000, 0.38100000, 0.00285750
1440, 0.83820000, 0.38100000, 0.00285750
1441, 0.91440000, 0.38100000, 0.00285750
1442, 0.99060000, 0.38100000, 0.00285750
1443, 1.06680000, 0.38100000, 0.00285750
1444, 1.14300000, 0.38100000, 0.00285750
1445, 1.21920000, 0.38100000, 0.00285750
1446, 1.29540000, 0.38100000, 0.00285750
1447, 1.37160000, 0.38100000, 0.00285750
1448, 1.44780000, 0.38100000, 0.00285750
1449, 1.52400000, 0.38100000, 0.00285750
1450, 0.00000000, 0.45720000, 0.00285750
1451, 0.07620000, 0.45720000, 0.00285750
1452, 0.15240000, 0.45720000, 0.00285750
1453, 0.22860000, 0.45720000, 0.00285750
1454, 0.30480000, 0.45720000, 0.00285750
1455, 0.38100000, 0.45720000, 0.00285750
1456, 0.45720000, 0.45720000, 0.00285750
1457, 0.53340000, 0.45720000, 0.00285750
1458, 0.60960000, 0.45720000, 0.00285750
1459, 0.68580000, 0.45720000, 0.00285750
1460, 0.76200000, 0.45720000, 0.00285750
1461, 0.83820000, 0.45720000, 0.00285750
1462, 0.91440000, 0.45720000, 0.00285750
1463, 0.99060000, 0.45720000, 0.00285750
1464, 1.06680000, 0.45720000, 0.00285750
1465, 1.14300000, 0.45720000, 0.00285750
1466, 1.21920000, 0.45720000, 0.00285750
1467, 1.29540000, 0.45720000, 0.00285750
1468, 1.37160000, 0.45720000, 0.00285750
1469, 1.44780000, 0.45720000, 0.00285750
1470, 1.52400000, 0.45720000, 0.00285750
1471, 0.00000000, 0.53340000, 0.00285750
1472, 0.07620000, 0.53340000, 0.00285750
1473, 0.15240000, 0.53340000, 0.00285750
1474, 0.22860000, 0.53340000, 0.00285750
1475, 0.30480000, 0.53340000, 0.00285750
1476, 0.38100000, 0.53340000, 0.00285750
1477, 0.45720000, 0.53340000, 0.00285750
1478, 0.53340000, 0.53340000, 0.00285750
1479, 0.60960000, 0.53340000, 0.00285750
1480, 0.68580000, 0.53340000, 0.00285750
1481, 0.76200000, 0.53340000, 0.00285750
1482, 0.83820000, 0.53340000, 0.00285750
1483, 0.91440000, 0.53340000, 0.00285750
1484, 0.99060000, 0.53340000, 0.00285750
1485, 1.06680000, 0.53340000, 0.00285750
1486, 1.14300000, 0.53340000, 0.00285750
1487, 1.21920000, 0.53340000, 0.00285750
1488, 1.29540000, 0.53340000, 0.00285750
1489, 1.37160000, 0.53340000, 0.00285750
1490, 1.44780000, 0.53340000, 0.00285750
1491, 1.52400000, 0.53340000, 0.00285750
1492, 0.00000000, 0.60960000, 0.00285750
1493, 0.07620000, 0.60960000, 0.00285750
1494, 0.15240000, 0.60960000, 0.00285750
1495, 0.22860000, 0.60960000, 0.00285750
1496, 0.30480000, 0.60960000, 0.00285750
1497, 0.38100000, 0.60960000, 0.00285750
1498, 0.45720000, 0.60960000, 0.00285750
1499, 0.53340000, 0.60960000, 0.00285750
1500, 0.60960000, 0.60960000, 0.00285750
1501, 0.68580000, 0.60960000, 0.00285750
1502, 0.76200000, 0.60960000, 0.00285750
1503, 0.83820000, 0.60960000, 0.00285750
1504, 0.91440000, 0.60960000, 0.00285750
1505, 0.99060000, 0.60960000, 0.00285750
1506, 1.06680000, 0.60960000, 0.00285750
1507, 1.14300000, 0.60960000, 0.00285750
1508, 1.21920000, 0.60960000, 0.00285750
1509, 1.29540000, 0.60960000, 0.00285750
1510, 1.37160000, 0.60960000, 0.00285750
1511, 1.44780000, 0.60960000, 0.00285750
1512, 1.52400000, 0.60960000, 0.00285750
1513, 0.00000000, 0.68580000, 0.00285750
1514, 0.07620000, 0.68580000, 0.00285750
1515, 0.15240000, 0.68580000, 0.00285750
1516, 0.22860000, 0.68580000, 0.00285750
1517, 0.30480000, 0.68580000, 0.00285750
1518, 0.38100000, 0.68580000, 0.00285750
1519, 0.45720000, 0.68580000, 0.00285750
1520, 0.53340000, 0.68580000, 0.00285750
1521, 0.60960000, 0.68580000, 0.00285750
1522, 0.68580000, 0.68580000, 0.00285750
1523, 0.76200000, 0.68580000, 0.00285750
1524, 0.83820000, 0.68580000, 0.00285750
1525, 0.91440000, 0.68580000, 0.00285750
1526, 0.99060000, 0.68580000, 0.00285750
1527, 1.06680000, 0.68580000, 0.00285750
1528, 1.14300000, 0.68580000, 0.00285750
1529, 1.21920000, 0.68580000, 0.00285750
1530, 1.29540000, 0.68580000, 0.00285750
1531, 1.37160000, 0.68580000, 0.00285750
1532, 1.44780000, 0.68580000, 0.00285750
1533, 1.52400000, 0.68580000, 0.00285750
1534, 0.00000000, 0.76200000, 0.00285750
1535, 0.07620000, 0.76200000, 0.00285750
1536, 0.15240000, 0.76200000, 0.00285750
1537, 0.22860000, 0.76200000, 0.00285750
1538, 0.30480000, 0.76200000, 0.00285750
1539, 0.38100000, 0.76200000, 0.00285750
1540, 0.45720000, 0.76200000, 0.00285750
1541, 0.53340000, 0.76200000, 0.00285750
1542, 0.60960000, 0.76200000, 0.00285750
1543, 0.68580000, 0.76200000, 0.00285750
1544, 0.76200000, 0.76200000, 0.00285750
1545, 0.83820000, 0.76200000, 0.00285750
1546, 0.91440000, 0.76200000, 0.00285750
1547, 0.99060000, 0.76200000, 0.00285750
1548, 1.06680000, 0.76200000, 0.00285750
1549, 1.14300000, 0.76200000, 0.00285750
1550, 1.21920000, 0.76200000, 0.00285750
1551, 1.29540000, 0.76200000, 0.00285750
1552, 1.37160000, 0.76200000, 0.00285750
1553, 1.44780000, 0.76200000, 0.00285750
1554, 1.52400000, 0.76200000, 0.00285750
1555, 0.00000000, 0.83820000, 0.00285750
1556, 0.07620000, 0.83820000, 0.00285750
1557, 0.15240000, 0.83820000, 0.00285750
1558, 0.22860000, 0.83820000, 0.00285750
1559, 0.30480000, 0.83820000, 0.00285750
1560, 0.38100000, 0.83820000, 0.00285750
1561, 0.45720000, 0.83820000, 0.00285750
1562, 0.53340000, 0.83820000, 0.00285750
1563, 0.60960000, 0.83820000, 0.00285750
1564, 0.68580000, 0.83820000, 0.00285750
1565, 0.76200000, 0.83820000, 0.00285750
1566, 0.83820000, 0.83820000, 0.00285750
1567, 0.91440000, 0.83820000, 0.00285750
1568, 0.99060000, 0.83820000, 0.00285750
1569, 1.06680000, 0.83820000, 0.00285750
1570, 1.14300000, 0.83820000, 0.00285750
1571, 1.21920000, 0.83820000, 0.00285750
1572, 1.29540000, 0.83820000, 0.00285750
1573, 1.37160000, 0.83820000, 0.00285750
1574, 1.44780000, 0.83820000, 0.00285750
1575, 1.52400000, 0.83820000, 0.00285750
1576, 0.00000000, 0.91440000, 0.00285750
1577, 0.07620000, 0.91440000, 0.00285750
1578, 0.15240000, 0.91440000, 0.00285750
1579, 0.22860000, 0.91440000, 0.00285750
1580, 0.30480000, 0.91440000, 0.00285750
1581, 0.38100000, 0.91440000, 0.00285750
1582, 0.45720000, 0.91440000, 0.00285750
1583, 0.53340000, 0.91440000, 0.00285750
1584, 0.60960000, 0.91440000, 0.00285750
1585, 0.68580000, 0.91440000, 0.00285750
1586, 0.76200000, 0.91440000, 0.00285750
1587, 0.83820000, 0.91440000, 0.00285750
1588, 0.91440000, 0.91440000, 0.00285750
1589, 0.99060000, 0.91440000, 0.00285750
1590, 1.06680000, 0.91440000, 0.00285750
1591, 1.14300000, 0.91440000, 0.00285750
1592, 1.21920000, 0.91440000, 0.00285750
1593, 1.29540000, 0.91440000, 0.00285750
1594, 1.37160000, 0.91440000, 0.00285750
1595, 1.44780000, 0.91440000, 0.00285750
1596, 1.52400000, 0.91440000, 0.00285750
1597, 0.00000000, 0.99060000, 0.00285750
1598, 0.07620000, 0.99060000, 0.00285750
1599, 0.15240000, 0.99060000, 0.00285750
1600, 0.22860000, 0.99060000, 0.00285750
1601, 0.30480000, 0.99060000, 0.00285750
1602, 0.38100000, 0.99060000, 0.00285750
1603, 0.45720000, 0.99060000, 0.00285750
1604, 0.53340000, 0.99060000, 0.00285750
1605, 0.60960000, 0.99060000, 0.00285750
1606, 0.68580000, 0.99060000, 0.00285750
1607, 0.76200000, 0.99060000, 0.00285750
1608, 0.83820000, 0.99060000, 0.00285750
1609, 0.91440000, 0.99060000, 0.00285750
1610, 0.99060000, 0.99060000, 0.00285750
1611, 1.06680000, 0.99060000, 0.00285750
1612, 1.14300000, 0.99060000, 0.00285750
1613, 1.21920000, 0.99060000, 0.00285750
1614, 1.29540000, 0.99060000, 0.00285750
1615, 1.37160000, 0.99060000, 0.00285750
1616, 1.44780000, 0.99060000, 0.00285750
1617, 1.52400000, 0.99060000, 0.00285750
1618, 0.00000000, 1.06680000, 0.00285750
1619, 0.07620000, 1.06680000, 0.00285750
1620, 0.15240000, 1.06680000, 0.00285750
1621, 0.22860000, 1.06680000, 0.00285750
1622, 0.30480000, 1.06680000, 0.00285750
1623, 0.38100000, 1.06680000, 0.00285750
1624, 0.45720000, 1.06680000, 0.00285750
1625, 0.53340000, 1.06680000, 0.00285750
1626, 0.60960000, 1.06680000, 0.00285750
1627, 0.68580000, 1.06680000, 0.00285750
1628, 0.76200000, 1.06680000, 0.00285750
1629, 0.83820000, 1.06680000, 0.00285750
1630, 0.91440000, 1.06680000, 0.00285750
1631, 0.99060000, 1.06680000, 0.00285750
1632, 1.06680000, 1.06680000, 0.00285750
1633, 1.14300000, 1.06680000, 0.00285750
1634, 1.21920000, 1.06680000, 0.00285750
1635, 1.29540000, 1.06680000, 0.00285750
1636, 1.37160000, 1.06680000, 0.00285750
1637, 1.44780000, 1.06680000, 0.00285750
1638, 1.52400000, 1.06680000, 0.00285750
1639, 0.00000000, 1.14300000, 0.00285750
1640, 0.07620000, 1.14300000, 0.00285750
1641, 0.15240000, 1.14300000, 0.00285750
1642, 0.22860000, 1.14300000, 0.00285750
1643, 0.30480000, 1.14300000, 0.00285750
1644, 0.38100000, 1.14300000, 0.00285750
1645, 0.45720000, 1.14300000, 0.00285750
1646, 0.53340000, 1.14300000, 0.00285750
1647, 0.60960000, 1.14300000, 0.00285750
1648, 0.68580000, 1.14300000, 0.00285750
1649, 0.76200000, 1.14300000, 0.00285750
1650, 0.83820000, 1.14300000, 0.00285750
1651, 0.91440000, 1.14300000, 0.00285750
1652, 0.99060000, 1.14300000, 0.00285750
1653, 1.06680000, 1.14300000, 0.00285750
1654, 1.14300000, 1.14300000, 0.00285750
1655, 1.21920000, 1.14300000, 0.00285750
1656, 1.29540000, 1.14300000, 0.00285750
1657, 1.37160000, 1.14300000, 0.00285750
1658, 1.44780000, 1.14300000, 0.00285750
1659, 1.52400000, 1.14300000, 0.00285750
1660, 0.00000000, 1.21920000, 0.00285750
1661, 0.07620000, 1.21920000, 0.00285750
1662, 0.15240000, 1.21920000, 0.00285750
1663, 0.22860000, 1.21920000, 0.00285750
1664, 0.30480000, 1.21920000, 0.00285750
1665, 0.38100000, 1.21920000, 0.00285750
1666, 0.45720000, 1.21920000, 0.00285750
1667, 0.53340000, 1.21920000, 0.00285750
1668, 0.60960000, 1.21920000, 0.00285750
1669, 0.68580000, 1.21920000, 0.00285750
1670, 0.76200000, 1.21920000, 0.00285750
1671, 0.83820000, 1.21920000, 0.00285750
1672, 0.91440000, 1.21920000, 0.00285750
1673, 0.99060000, 1.21920000, 0.00285750
1674, 1.06680000, 1.21920000, 0.00285750
1675, 1.14300000, 1.21920000, 0.00285750
1676, 1.21920000, 1.21920000, 0.00285750
1677, 1.29540000, 1.21920000, 0.00285750
1678, 1.37160000, 1.21920000, 0.00285750
1679, 1.44780000, 1.21920000, 0.00285750
1680, 1.52400000, 1.21920000, 0.00285750
1681, 0.00000000, 1.29540000, 0.00285750
1682, 0.07620000, 1.29540000, 0.00285750
1683, 0.15240000, 1.29540000, 0.00285750
1684, 0.22860000, 1.29540000, 0.00285750
1685, 0.30480000, 1.29540000, 0.00285750
1686, 0.38100000, 1.29540000, 0.00285750
1687, 0.45720000, 1.29540000, 0.00285750
1688, 0.53340000, 1.29540000, 0.00285750
1689, 0.60960000, 1.29540000, 0.00285750
1690, 0.68580000, 1.29540000, 0.00285750
1691, 0.76200000, 1.29540000, 0.00285750
1692, 0.83820000, 1.29540000, 0.00285750
1693, 0.91440000, 1.29540000, 0.00285750
1694, 0.99060000, 1.29540000, 0.00285750
1695, 1.06680000, 1.29540000, 0.00285750
1696, 1.14300000, 1.29540000, 0.00285750
1697, 1.21920000, 1.29540000, 0.00285750
1698, 1.29540000, 1.29540000, 0.00285750
1699, 1.37160000, 1.29540000, 0.00285750
1700, 1.44780000, 1.29540000, 0.00285750
1701, 1.52400000, 1.29540000, 0.00285750
1702, 0.00000000, 1.37160000, 0.00285750
1703, 0.07620000, 1.37160000, 0.00285750
1704, 0.15240000, 1.37160000, 0.00285750
1705, 0.22860000, 1.37160000, 0.00285750
1706, 0.30480000, 1.37160000, 0.00285750
1707, 0.38100000, 1.37160000, 0.00285750
1708, 0.45720000, 1.37160000, 0.00285750
1709, 0.53340000, 1.37160000, 0.00285750
1710, 0.60960000, 1.37160000, 0.00285750
1711, 0.68580000, 1.37160000, 0.00285750
1712, 0.76200000, 1.37160000, 0.00285750
1713, 0.83820000, 1.37160000, 0.00285750
1714, 0.91440000, 1.37160000, 0.00285750
1715, 0.99060000, 1.37160000, 0.00285750
1716, 1.06680000, 1.37160000, 0.00285750
1717, 1.14300000, 1.37160000, 0.00285750
1718, 1.21920000, 1.37160000, 0.00285750
1719, 1.29540000, 1.37160000, 0.00285750
1720, 1.37160000, 1.37160000, 0.00285750
1721, 1.44780000, 1.37160000, 0.00285750
1722, 1.52400000, 1.37160000, 0.00285750
1723, 0.00000000, 1.44780000, 0.00285750
1724, 0.07620000, 1.44780000, 0.00285750
1725, 0.15240000, 1.44780000, 0.00285750
1726, 0.22860000, 1.44780000, 0.00285750
1727, 0.30480000, 1.44780000, 0.00285750
1728, 0.38100000, 1.44780000, 0.00285750
1729, 0.45720000, 1.44780000, 0.00285750
1730, 0.53340000, 1.44780000, 0.00285750
1731, 0.60960000, 1.44780000, 0.00285750
1732, 0.68580000, 1.44780000, 0.00285750
1733, 0.76200000, 1.44780000, 0.00285750
1734, 0.83820000, 1.44780000, 0.00285750
1735, 0.91440000, 1.44780000, 0.00285750
1736, 0.99060000, 1.44780000, 0.00285750
1737, 1.06680000, 1.44780000, 0.00285750
1738, 1.14300000, 1.44780000, 0.00285750
1739, 1.21920000, 1.44780000, 0.00285750
1740, 1.29540000, 1.44780000, 0.00285750
1741, 1.37160000, 1.44780000, 0.00285750
1742, 1.44780000, 1.44780000, 0.00285750
1743, 1.52400000, 1.44780000, 0.00285750
1744, 0.00000000, 1.52400000, 0.00285750
1745, 0.07620000, 1.52400000, 0.00285750
1746, 0.15240000, 1.52400000, 0.00285750
1747, 0.22860000, 1.52400000, 0.00285750
1748, 0.30480000, 1.52400000, 0.00285750
1749, 0.38100000, 1.52400000, 0.00285750
1750, 0.45720000, 1.52400000, 0.00285750
1751, 0.53340000, 1.52400000, 0.00285750
1752, 0.60960000, 1.52400000, 0.00285750
1753, 0.68580000, 1.52400000, 0.00285750
1754, 0.76200000, 1.52400000, 0.00285750
1755, 0.83820000, 1.52400000, 0.00285750
1756, 0.91440000, 1.52400000, 0.00285750
1757, 0.99060000, 1.52400000, 0.00285750
1758, 1.06680000, 1.52400000, 0.00285750
1759, 1.14300000, 1.52400000, 0.00285750
1760, 1.21920000, 1.52400000, 0.00285750
1761, 1.29540000, 1.52400000, 0.00285750
1762, 1.37160000, 1.52400000, 0.00285750
1763, 1.44780000, 1.52400000, 0.00285750
1764, 1.52400000, 1.52400000, 0.00285750
1765, 0.00000000, 0.00000000, 0.00381000
1766, 0.07620000, 0.00000000, 0.00381000
1767, 0.15240000, 0.00000000, 0.00381000
1768, 0.22860000, 0.00000000, 0.00381000
1769, 0.30480000, 0.00000000, 0.00381000
1770, 0.38100000, 0.00000000, 0.00381000
1771, 0.45720000, 0.00000000, 0.00381000
1772, 0.53340000, 0.00000000, 0.00381000
1773, 0.60960000, 0.00000000, 0.00381000
1774, 0.68580000, 0.00000000, 0.00381000
1775, 0.76200000, 0.00000000, 0.00381000
1776, 0.83820000, 0.00000000, 0.00381000
1777, 0.91440000, 0.00000000, 0.00381000
1778, 0.99060000, 0.00000000, 0.00381000
1779, 1.06680000, 0.00000000, 0.00381000
1780, 1.14300000, 0.00000000, 0.00381000
1781, 1.21920000, 0.00000000, 0.00381000
1782, 1.29540000, 0.00000000, 0.00381000
1783, 1.37160000, 0.00000000, 0.00381000
1784, 1.44780000, 0.00000000, 0.00381000
1785, 1.52400000, 0.00000000, 0.00381000
1786, 0.00000000, 0.07620000, 0.00381000
1787, 0.07620000, 0.07620000, 0.00381000
1788, 0.15240000, 0.07620000, 0.00381000
1789, 0.22860000, 0.07620000, 0.00381000
1790, 0.30480000, 0.07620000, 0.00381000
1791, 0.38100000, 0.07620000, 0.00381000
1792, 0.45720000, 0.07620000, 0.00381000
1793, 0.53340000, 0.07620000, 0.00381000
1794, 0.60960000, 0.07620000, 0.00381000
1795, 0.68580000, 0.07620000, 0.00381000
1796, 0.76200000, 0.07620000, 0.00381000
1797, 0.83820000, 0.07620000, 0.00381000
1798, 0.91440000, 0.07620000, 0.00381000
1799, 0.99060000, 0.07620000, 0.00381000
1800, 1.06680000, 0.07620000, 0.00381000
1801, 1.14300000, 0.07620000, 0.00381000
1802, 1.21920000, 0.07620000, 0.00381000
1803, 1.29540000, 0.07620000, 0.00381000
1804, 1.37160000, 0.07620000, 0.00381000
1805, 1.44780000, 0.07620000, 0.00381000
1806, 1.52400000, 0.07620000, 0.00381000
1807, 0.00000000, 0.15240000, 0.00381000
1808, 0.07620000, 0.15240000, 0.00381000
1809, 0.15240000, 0.15240000, 0.00381000
1810, 0.22860000, 0.15240000, 0.00381000
1811, 0.30480000, 0.15240000, 0.00381000
1812, 0.38100000, 0.15240000, 0.00381000
1813, 0.45720000, 0.15240000, 0.00381000
1814, 0.53340000, 0.15240000, 0.00381000
1815, 0.60960000, 0.15240000, 0.00381000
1816, 0.68580000, 0.15240000, 0.00381000
1817, 0.76200000, 0.15240000, 0.00381000
1818, 0.83820000, 0.15240000, 0.00381000
1819, 0.91440000, 0.15240000, 0.00381000
1820, 0.99060000, 0.15240000, 0.00381000
1821, 1.06680000, 0.15240000, 0.00381000
1822, 1.14300000, 0.15240000, 0.00381000
1823, 1.21920000, 0.15240000, 0.00381000
1824, 1.29540000, 0.15240000, 0.00381000
1825, 1.37160000, 0.15240000, 0.00381000
1826, 1.44780000, 0.15240000, 0.00381000
1827, 1.52400000, 0.15240000, 0.00381000
1828, 0.00000000, 0.22860000, 0.00381000
1829, 0.07620000, 0.22860000, 0.00381000
1830, 0.15240000, 0.22860000, 0.00381000
1831, 0.22860000, 0.22860000, 0.00381000
1832, 0.30480000, 0.22860000, 0.00381000
1833, 0.38100000, 0.22860000, 0.00381000
1834, 0.45720000, 0.22860000, 0.00381000
1835, 0.53340000, 0.22860000, 0.00381000
1836, 0.60960000, 0.22860000, 0.00381000
1837, 0.68580000, 0.22860000, 0.00381000
1838, 0.76200000, 0.22860000, 0.00381000
1839, 0.83820000, 0.22860000, 0.00381000
1840, 0.91440000, 0.22860000, 0.00381000
1841, 0.99060000, 0.22860000, 0.00381000
1842, 1.06680000, 0.22860000, 0.00381000
1843, 1.14300000, 0.22860000, 0.00381000
1844, 1.21920000, 0.22860000, 0.00381000
1845, 1.29540000, 0.22860000, 0.00381000
1846, 1.37160000, 0.22860000, 0.00381000
1847, 1.44780000, 0.22860000, 0.00381000
1848, 1.52400000, 0.22860000, 0.00381000
1849, 0.00000000, 0.30480000, 0.00381000
1850, 0.07620000, 0.30480000, 0.00381000
1851, 0.15240000, 0.30480000, 0.00381000
1852, 0.22860000, 0.30480000, 0.00381000
1853, 0.30480000, 0.30480000, 0.00381000
1854, 0.38100000, 0.30480000, 0.00381000
1855, 0.45720000, 0.30480000, 0.00381000
1856, 0.53340000, 0.30480000, 0.00381000
1857, 0.60960000, 0.30480000, 0.00381000
1858, 0.68580000, 0.30480000, 0.00381000
1859, 0.76200000, 0.30480000, 0.00381000
1860, 0.83820000, 0.30480000, 0.00381000
1861, 0.91440000, 0.30480000, 0.00381000
1862, 0.99060000, 0.30480000, 0.00381000
1863, 1.06680000, 0.30480000, 0.00381000
1864, 1.14300000, 0.30480000, 0.00381000
1865, 1.21920000, 0.30480000, 0.00381000
1866, 1.29540000, 0.30480000, 0.00381000
1867, 1.37160000, 0.30480000, 0.00381000
1868, 1.44780000, 0.30480000, 0.00381000
1869, 1.52400000, 0.30480000, 0.00381000
1870, 0.00000000, 0.38100000, 0.00381000
1871, 0.07620000, 0.38100000, 0.00381000
1872, 0.15240000, 0.38100000, 0.00381000
1873, 0.22860000, 0.38100000, 0.00381000
1874, 0.30480000, 0.38100000, 0.00381000
1875, 0.38100000, 0.38100000, 0.00381000
1876, 0.45720000, 0.38100000, 0.00381000
1877, 0.53340000, 0.38100000, 0.00381000
1878, 0.60960000, 0.38100000, 0.00381000
1879, 0.68580000, 0.38100000, 0.00381000
1880, 0.76200000, 0.38100000, 0.00381000
1881, 0.83820000, 0.38100000, 0.00381000
1882, 0.91440000, 0.38100000, 0.00381000
1883, 0.99060000, 0.38100000, 0.00381000
1884, 1.06680000, 0.38100000, 0.00381000
1885, 1.14300000, 0.38100000, 0.00381000
1886, 1.21920000, 0.38100000, 0.00381000
1887, 1.29540000, 0.38100000, 0.00381000
1888, 1.37160000, 0.38100000, 0.00381000
1889, 1.44780000, 0.38100000, 0.00381000
1890, 1.52400000, 0.38100000, 0.00381000
1891, 0.00000000, 0.45720000, 0.00381000
1892, 0.07620000, 0.45720000, 0.00381000
1893, 0.15240000, 0.45720000, 0.00381000
1894, 0.22860000, 0.45720000, 0.00381000
1895, 0.30480000, 0.45720000, 0.00381000
1896, 0.38100000, 0.45720000, 0.00381000
1897, 0.45720000, 0.45720000, 0.00381000
1898, 0.53340000, 0.45720000, 0.00381000
1899, 0.60960000, 0.45720000, 0.00381000
1900, 0.68580000, 0.45720000, 0.00381000
1901, 0.76200000, 0.45720000, 0.00381000
1902, 0.83820000, 0.45720000, 0.00381000
1903, 0.91440000, 0.45720000, 0.00381000
1904, 0.99060000, 0.45720000, 0.00381000
1905, 1.06680000, 0.45720000, 0.00381000
1906, 1.14300000, 0.45720000, 0.00381000
1907, 1.21920000, 0.45720000, 0.00381000
1908, 1.29540000, 0.45720000, 0.00381000
1909, 1.37160000, 0.45720000, 0.00381000
1910, 1.44780000, 0.45720000, 0.00381000
1911, 1.52400000, 0.45720000, 0.00381000
1912, 0.00000000, 0.53340000, 0.00381000
1913, 0.07620000, 0.53340000, 0.00381000
1914, 0.15240000, 0.53340000, 0.00381000
1915, 0.22860000, 0.53340000, 0.00381000
1916, 0.30480000, 0.53340000, 0.00381000
1917, 0.38100000, 0.53340000, 0.00381000
1918, 0.45720000, 0.53340000, 0.00381000
1919, 0.53340000, 0.53340000, 0.00381000
1920, 0.60960000, 0.53340000, 0.00381000
1921, 0.68580000, 0.53340000, 0.00381000
1922, 0.76200000, 0.53340000, 0.00381000
1923, 0.83820000, 0.53340000, 0.00381000
1924, 0.91440000, 0.53340000, 0.00381000
1925, 0.99060000, 0.53340000, 0.00381000
1926, 1.06680000, 0.53340000, 0.00381000
1927, 1.14300000, 0.53340000, 0.00381000
1928, 1.21920000, 0.53340000, 0.00381000
1929, 1.29540000, 0.53340000, 0.00381000
1930, 1.37160000, 0.53340000, 0.00381000
1931, 1.44780000, 0.53340000, 0.00381000
1932, 1.52400000, 0.53340000, 0.00381000
1933, 0.00000000, 0.60960000, 0.00381000
1934, 0.07620000, 0.60960000, 0.00381000
1935, 0.15240000, 0.60960000, 0.00381000
1936, 0.22860000, 0.60960000, 0.00381000
1937, 0.30480000, 0.60960000, 0.00381000
1938, 0.38100000, 0.60960000, 0.00381000
1939, 0.45720000, 0.60960000, 0.00381000
1940, 0.53340000, 0.60960000, 0.00381000
1941, 0.60960000, 0.60960000, 0.00381000
1942, 0.68580000, 0.60960000, 0.00381000
1943, 0.76200000, 0.60960000, 0.00381000
1944, 0.83820000, 0.60960000, 0.00381000
1945, 0.91440000, 0.60960000, 0.00381000
1946, 0.99060000, 0.60960000, 0.00381000
1947, 1.06680000, 0.60960000, 0.00381000
1948, 1.14300000, 0.60960000, 0.00381000
1949, 1.21920000, 0.60960000, 0.00381000
1950, 1.29540000, 0.60960000, 0.00381000
1951, 1.37160000, 0.60960000, 0.00381000
1952, 1.44780000, 0.60960000, 0.00381000
1953, 1.52400000, 0.60960000, 0.00381000
1954, 0.00000000, 0.68580000, 0.00381000
1955, 0.07620000, 0.68580000, 0.00381000
1956, 0.15240000, 0.68580000, 0.00381000
1957, 0.22860000, 0.68580000, 0.00381000
1958, 0.30480000, 0.68580000, 0.00381000
1959, 0.38100000, 0.68580000, 0.00381000
1960, 0.45720000, 0.68580000, 0.00381000
1961, 0.53340000, 0.68580000, 0.00381000
1962, 0.60960000, 0.68580000, 0.00381000
1963, 0.68580000, 0.68580000, 0.00381000
1964, 0.76200000, 0.68580000, 0.00381000
1965, 0.83820000, 0.68580000, 0.00381000
1966, 0.91440000, 0.68580000, 0.00381000
1967, 0.99060000, 0.68580000, 0.00381000
1968, 1.06680000, 0.68580000, 0.00381000
1969, 1.14300000, 0.68580000, 0.00381000
1970, 1.21920000, 0.68580000, 0.00381000
1971, 1.29540000, 0.68580000, 0.00381000
1972, 1.37160000, 0.68580000, 0.00381000
1973, 1.44780000, 0.68580000, 0.00381000
1974, 1.52400000, 0.68580000, 0.00381000
1975, 0.00000000, 0.76200000, 0.00381000
1976, 0.07620000, 0.76200000, 0.00381000
1977, 0.15240000, 0.76200000, 0.00381000
1978, 0.22860000, 0.76200000, 0.00381000
1979, 0.30480000, 0.76200000, 0.00381000
1980, 0.38100000, 0.76200000, 0.00381000
1981, 0.45720000, 0.76200000, 0.00381000
1982, 0.53340000, 0.76200000, 0.00381000
1983, 0.60960000, 0.76200000, 0.00381000
1984, 0.68580000, 0.76200000, 0.00381000
1985, 0.76200000, 0.76200000, 0.00381000
1986, 0.83820000, 0.76200000, 0.00381000
1987, 0.91440000, 0.76200000, 0.00381000
1988, 0.99060000, 0.76200000, 0.00381000
1989, 1.06680000, 0.76200000, 0.00381000
1990, 1.14300000, 0.76200000, 0.00381000
1991, 1.21920000, 0.76200000, 0.00381000
1992, 1.29540000, 0.76200000, 0.00381000
1993, 1.37160000, 0.76200000, 0.00381000
1994, 1.44780000, 0.76200000, 0.00381000
1995, 1.52400000, 0.76200000, 0.00381000
1996, 0.00000000, 0.83820000, 0.00381000
1997, 0.07620000, 0.83820000, 0.00381000
1998, 0.15240000, 0.83820000, 0.00381000
1999, 0.22860000, 0.83820000, 0.00381000
2000, 0.30480000, 0.83820000, 0.00381000
2001, 0.38100000, 0.83820000, 0.00381000
2002, 0.45720000, 0.83820000, 0.00381000
2003, 0.53340000, 0.83820000, 0.00381000
2004, 0.60960000, 0.83820000, 0.00381000
2005, 0.68580000, 0.83820000, 0.00381000
2006, 0.76200000, 0.83820000, 0.00381000
2007, 0.83820000, 0.83820000, 0.00381000
2008, 0.91440000, 0.83820000, 0.00381000
2009, 0.99060000, 0.83820000, 0.00381000
2010, 1.06680000, 0.83820000, 0.00381000
2011, 1.14300000, 0.83820000, 0.00381000
2012, 1.21920000, 0.83820000, 0.00381000
2013, 1.29540000, 0.83820000, 0.00381000
2014, 1.37160000, 0.83820000, 0.00381000
2015, 1.44780000, 0.83820000, 0.00381000
2016, 1.52400000, 0.83820000, 0.00381000
2017, 0.00000000, 0.91440000, 0.00381000
2018, 0.07620000, 0.91440000, 0.00381000
2019, 0.15240000, 0.91440000, 0.00381000
2020, 0.22860000, 0.91440000, 0.00381000
2021, 0.30480000, 0.91440000, 0.00381000
2022, 0.38100000, 0.91440000, 0.00381000
2023, 0.45720000, 0.91440000, 0.00381000
2024, 0.53340000, 0.91440000, 0.00381000
2025, 0.60960000, 0.91440000, 0.00381000
2026, 0.68580000, 0.91440000, 0.00381000
2027, 0.76200000, 0.91440000, 0.00381000
2028, 0.83820000, 0.91440000, 0.00381000
2029, 0.91440000, 0.91440000, 0.00381000
2030, 0.99060000, 0.91440000, 0.00381000
2031, 1.06680000, 0.91440000, 0.00381000
2032, 1.14300000, 0.91440000, 0.00381000
2033, 1.21920000, 0.91440000, 0.00381000
2034, 1.29540000, 0.91440000, 0.00381000
2035, 1.37160000, 0.91440000, 0.00381000
2036, 1.44780000, 0.91440000, 0.00381000
2037, 1.52400000, 0.91440000, 0.00381000
2038, 0.00000000, 0.99060000, 0.00381000
2039, 0.07620000, 0.99060000, 0.00381000
2040, 0.15240000, 0.99060000, 0.00381000
2041, 0.22860000, 0.99060000, 0.00381000
2042, 0.30480000, 0.99060000, 0.00381000
2043, 0.38100000, 0.99060000, 0.00381000
2044, 0.45720000, 0.99060000, 0.00381000
2045, 0.53340000, 0.99060000, 0.00381000
2046, 0.60960000, 0.99060000, 0.00381000
2047, 0.68580000, 0.99060000, 0.00381000
2048, 0.76200000, 0.99060000, 0.00381000
2049, 0.83820000, 0.99060000, 0.00381000
2050, 0.91440000, 0.99060000, 0.00381000
2051, 0.99060000, 0.99060000, 0.00381000
2052, 1.06680000, 0.99060000, 0.00381000
2053, 1.14300000, 0.99060000, 0.00381000
2054, 1.21920000, 0.99060000, 0.00381000
2055, 1.29540000, 0.99060000, 0.00381000
2056, 1.37160000, 0.99060000, 0.00381000
2057, 1.44780000, 0.99060000, 0.00381000
2058, 1.52400000, 0.99060000, 0.00381000
2059, 0.00000000, 1.06680000, 0.00381000
2060, 0.07620000, 1.06680000, 0.00381000
2061, 0.15240000, 1.06680000, 0.00381000
2062, 0.22860000, 1.06680000, 0.00381000
2063, 0.30480000, 1.06680000, 0.00381000
2064, 0.38100000, 1.06680000, 0.00381000
2065, 0.45720000, 1.06680000, 0.00381000
2066, 0.53340000, 1.06680000, 0.00381000
2067, 0.60960000, 1.06680000, 0.00381000
2068, 0.68580000, 1.06680000, 0.00381000
2069, 0.76200000, 1.06680000, 0.00381000
2070, 0.83820000, 1.06680000, 0.00381000
2071, 0.91440000, 1.06680000, 0.00381000
2072, 0.99060000, 1.06680000, 0.00381000
2073, 1.06680000, 1.06680000, 0.00381000
2074, 1.14300000, 1.06680000, 0.00381000
2075, 1.21920000, 1.06680000, 0.00381000
2076, 1.29540000, 1.06680000, 0.00381000
2077, 1.37160000, 1.06680000, 0.00381000
2078, 1.44780000, 1.06680000, 0.00381000
2079, 1.52400000, 1.06680000, 0.00381000
2080, 0.00000000, 1.14300000, 0.00381000
2081, 0.07620000, 1.14300000, 0.00381000
2082, 0.15240000, 1.14300000, 0.00381000
2083, 0.22860000, 1.14300000, 0.00381000
2084, 0.30480000, 1.14300000, 0.00381000
2085, 0.38100000, 1.14300000, 0.00381000
2086, 0.45720000, 1.14300000, 0.00381000
2087, 0.53340000, 1.14300000, 0.00381000
2088, 0.60960000, 1.14300000, 0.00381000
2089, 0.68580000, 1.14300000, 0.00381000
2090, 0.76200000, 1.14300000, 0.00381000
2091, 0.83820000, 1.14300000, 0.00381000
2092, 0.91440000, 1.14300000, 0.00381000
2093, 0.99060000, 1.14300000, 0.00381000
2094, 1.06680000, 1.14300000, 0.00381000
2095, 1.14300000, 1.14300000, 0.00381000
2096, 1.21920000, 1.14300000, 0.00381000
2097, 1.29540000, 1.14300000, 0.00381000
2098, 1.37160000, 1.14300000, 0.00381000
2099, 1.44780000, 1.14300000, 0.00381000
2100, 1.52400000, 1.14300000, 0.00381000
2101, 0.00000000, 1.21920000, 0.00381000
2102, 0.07620000, 1.21920000, 0.00381000
2103, 0.15240000, 1.21920000, 0.00381000
2104, 0.22860000, 1.21920000, 0.00381000
2105, 0.30480000, 1.21920000, 0.00381000
2106, 0.38100000, 1.21920000, 0.00381000
2107, 0.45720000, 1.21920000, 0.00381000
2108, 0.53340000, 1.21920000, 0.00381000
2109, 0.60960000, 1.21920000, 0.00381000
2110, 0.68580000, 1.21920000, 0.00381000
2111, 0.76200000, 1.21920000, 0.00381000
2112, 0.83820000, 1.21920000, 0.00381000
2113, 0.91440000, 1.21920000, 0.00381000
2114, 0.99060000, 1.21920000, 0.00381000
2115, 1.06680000, 1.21920000, 0.00381000
2116, 1.14300000, 1.21920000, 0.00381000
2117, 1.21920000, 1.21920000, 0.00381000
2118, 1.29540000, 1.21920000, 0.00381000
2119, 1.37160000, 1.21920000, 0.00381000
2120, 1.44780000, 1.21920000, 0.00381000
2121, 1.52400000, 1.21920000, 0.00381000
2122, 0.00000000, 1.29540000, 0.00381000
2123, 0.07620000, 1.29540000, 0.00381000
2124, 0.15240000, 1.29540000, 0.00381000
2125, 0.22860000, 1.29540000, 0.00381000
2126, 0.30480000, 1.29540000, 0.00381000
2127, 0.38100000, 1.29540000, 0.00381000
2128, 0.45720000, 1.29540000, 0.00381000
2129, 0.53340000, 1.29540000, 0.00381000
2130, 0.60960000, 1.29540000, 0.00381000
2131, 0.68580000, 1.29540000, 0.00381000
2132, 0.76200000, 1.29540000, 0.00381000
2133, 0.83820000, 1.29540000, 0.00381000
2134, 0.91440000, 1.29540000, 0.00381000
2135, 0.99060000, 1.29540000, 0.00381000
2136, 1.06680000, 1.29540000, 0.00381000
2137, 1.14300000, 1.29540000, 0.00381000
2138, 1.21920000, 1.29540000, 0.00381000
2139, 1.29540000, 1.29540000, 0.00381000
2140, 1.37160000, 1.29540000, 0.00381000
2141, 1.44780000, 1.29540000, 0.00381000
2142, 1.52400000, 1.29540000, 0.00381000
2143, 0.00000000, 1.37160000, 0.00381000
2144, 0.07620000, 1.37160000, 0.00381000
2145, 0.15240000, 1.37160000, 0.00381000
2146, 0.22860000, 1.37160000, 0.00381000
2147, 0.30480000, 1.37160000, 0.00381000
2148, 0.38100000, 1.37160000, 0.00381000
2149, 0.45720000, 1.37160000, 0.00381000
2150, 0.53340000, 1.37160000, 0.00381000
2151, 0.60960000, 1.37160000, 0.00381000
2152, 0.68580000, 1.37160000, 0.00381000
2153, 0.76200000, 1.37160000, 0.00381000
2154, 0.83820000, 1.37160000, 0.00381000
2155, 0.91440000, 1.37160000, 0.00381000
2156, 0.99060000, 1.37160000, 0.00381000
2157, 1.06680000, 1.37160000, 0.00381000
2158, 1.14300000, 1.37160000, 0.00381000
2159, 1.21920000, 1.37160000, 0.00381000
2160, 1.29540000, 1.37160000, 0.00381000
2161, 1.37160000, 1.37160000, 0.00381000
2162, 1.44780000, 1.37160000, 0.00381000
2163, 1.52400000, 1.37160000, 0.00381000
2164, 0.00000000, 1.44780000, 0.00381000
2165, 0.07620000, 1.44780000, 0.00381000
2166, 0.15240000, 1.44780000, 0.00381000
2167, 0.22860000, 1.44780000, 0.00381000
2168, 0.30480000, 1.44780000, 0.00381000
2169, 0.38100000, 1.44780000, 0.00381000
2170, 0.45720000, 1.44780000, 0.00381000
2171, 0.53340000, 1.44780000, 0.00381000
2172, 0.60960000, 1.44780000, 0.00381000
2173, 0.68580000, 1.44780000, 0.00381000
2174, 0.76200000, 1.44780000, 0.00381000
2175, 0.83820000, 1.44780000, 0.00381000
2176, 0.91440000, 1.44780000, 0.00381000
2177, 0.99060000, 1.44780000, 0.00381000
2178, 1.06680000, 1.44780000, 0.00381000
2179, 1.14300000, 1.44780000, 0.00381000
2180, 1.21920000, 1.44780000, 0.00381000
2181, 1.29540000, 1.44780000, 0.00381000
2182, 1.37160000, 1.44780000, 0.00381000
2183, 1.44780000, 1.44780000, 0.00381000
2184, 1.52400000, 1.44780000, 0.00381000
2185, 0.00000000, 1.52400000, 0.00381000
2186, 0.07620000, 1.52400000, 0.00381000
2187, 0.15240000, 1.52400000, 0.00381000
2188, 0.22860000, 1.52400000, 0.00381000
2189, 0.30480000, 1.52400000, 0.00381000
2190, 0.38100000, 1.52400000, 0.00381000
2191, 0.45720000, 1.52400000, 0.00381000
2192, 0.53340000, 1.52400000, 0.00381000
2193, 0.60960000, 1.52400000, 0.00381000
2194, 0.68580000, 1.52400000, 0.00381000
2195, 0.76200000, 1.52400000, 0.00381000
2196, 0.83820000, 1.52400000, 0.00381000
2197, 0.91440000, 1.52400000, 0.00381000
2198, 0.99060000, 1.52400000, 0.00381000
2199, 1.06680000, 1.52400000, 0.00381000
2200, 1.14300000, 1.52400000, 0.00381000
2201, 1.21920000, 1.52400000, 0.00381000
2202, 1.29540000, 1.52400000, 0.00381000
2203, 1.37160000, 1.52400000, 0.00381000
2204, 1.44780000, 1.52400000, 0.00381000
2205, 1.52400000, 1.52400000, 0.00381000
2206, 0.00000000, 0.00000000, 0.02190750
2207, 0.07620000, 0.00000000, 0.02190750
2208, 0.15240000, 0.00000000, 0.02190750
2209, 0.22860000, 0.00000000, 0.02190750
2210, 0.30480000, 0.00000000, 0.02190750
2211, 0.38100000, 0.00000000, 0.02190750
2212, 0.45720000, 0.00000000, 0.02190750
2213, 0.53340000, 0.00000000, 0.02190750
2214, 0.60960000, 0.00000000, 0.02190750
2215, 0.68580000, 0.00000000, 0.02190750
2216, 0.76200000, 0.00000000, 0.02190750
2217, 0.83820000, 0.00000000, 0.02190750
2218, 0.91440000, 0.00000000, 0.02190750
2219, 0.99060000, 0.00000000, 0.02190750
2220, 1.06680000, 0.00000000, 0.02190750
2221, 1.14300000, 0.00000000, 0.02190750
2222, 1.21920000, 0.00000000, 0.02190750
2223, 1.29540000, 0.00000000, 0.02190750
2224, 1.37160000, 0.00000000, 0.02190750
2225, 1.44780000, 0.00000000, 0.02190750
2226, 1.52400000, 0.00000000, 0.02190750
2227, 0.00000000, 0.07620000, 0.02190750
2228, 0.07620000, 0.07620000, 0.02190750
2229, 0.15240000, 0.07620000, 0.02190750
2230, 0.22860000, 0.07620000, 0.02190750
2231, 0.30480000, 0.07620000, 0.02190750
2232, 0.38100000, 0.07620000, 0.02190750
2233, 0.45720000, 0.07620000, 0.02190750
2234, 0.53340000, 0.07620000, 0.02190750
2235, 0.60960000, 0.07620000, 0.02190750
2236, 0.68580000, 0.07620000, 0.02190750
2237, 0.76200000, 0.07620000, 0.02190750
2238, 0.83820000, 0.07620000, 0.02190750
2239, 0.91440000, 0.07620000, 0.02190750
2240, 0.99060000, 0.07620000, 0.02190750
2241, 1.06680000, 0.07620000, 0.02190750
2242, 1.14300000, 0.07620000, 0.02190750
2243, 1.21920000, 0.07620000, 0.02190750
2244, 1.29540000, 0.07620000, 0.02190750
2245, 1.37160000, 0.07620000, 0.02190750
2246, 1.44780000, 0.07620000, 0.02190750
2247, 1.52400000, 0.07620000, 0.02190750
2248, 0.00000000, 0.15240000, 0.02190750
2249, 0.07620000, 0.15240000, 0.02190750
2250, 0.15240000, 0.15240000, 0.02190750
2251, 0.22860000, 0.15240000, 0.02190750
2252, 0.30480000, 0.15240000, 0.02190750
2253, 0.38100000, 0.15240000, 0.02190750
2254, 0.45720000, 0.15240000, 0.02190750
2255, 0.53340000, 0.15240000, 0.02190750
2256, 0.60960000, 0.15240000, 0.02190750
2257, 0.68580000, 0.15240000, 0.02190750
2258, 0.76200000, 0.15240000, 0.02190750
2259, 0.83820000, 0.15240000, 0.02190750
2260, 0.91440000, 0.15240000, 0.02190750
2261, 0.99060000, 0.15240000, 0.02190750
2262, 1.06680000, 0.15240000, 0.02190750
2263, 1.14300000, 0.15240000, 0.02190750
2264, 1.21920000, 0.15240000, 0.02190750
2265, 1.29540000, 0.15240000, 0.02190750
2266, 1.37160000, 0.15240000, 0.02190750
2267, 1.44780000, 0.15240000, 0.02190750
2268, 1.52400000, 0.15240000, 0.02190750
2269, 0.00000000, 0.22860000, 0.02190750
2270, 0.07620000, 0.22860000, 0.02190750
2271, 0.15240000, 0.22860000, 0.02190750
2272, 0.22860000, 0.22860000, 0.02190750
2273, 0.30480000, 0.22860000, 0.02190750
2274, 0.38100000, 0.22860000, 0.02190750
2275, 0.45720000, 0.22860000, 0.02190750
2276, 0.53340000, 0.22860000, 0.02190750
2277, 0.60960000, 0.22860000, 0.02190750
2278, 0.68580000, 0.22860000, 0.02190750
2279, 0.76200000, 0.22860000, 0.02190750
2280, 0.83820000, 0.22860000, 0.02190750
2281, 0.91440000, 0.22860000, 0.02190750
2282, 0.99060000, 0.22860000, 0.02190750
2283, 1.06680000, 0.22860000, 0.02190750
2284, 1.14300000, 0.22860000, 0.02190750
2285, 1.21920000, 0.22860000, 0.02190750
2286, 1.29540000, 0.22860000, 0.02190750
2287, 1.37160000, 0.22860000, 0.02190750
2288, 1.44780000, 0.22860000, 0.02190750
2289, 1.52400000, 0.22860000, 0.02190750
2290, 0.00000000, 0.30480000, 0.02190750
2291, 0.07620000, 0.30480000, 0.02190750
2292, 0.15240000, 0.30480000, 0.02190750
2293, 0.22860000, 0.30480000, 0.02190750
2294, 0.30480000, 0.30480000, 0.02190750
2295, 0.38100000, 0.30480000, 0.02190750
2296, 0.45720000, 0.30480000, 0.02190750
2297, 0.53340000, 0.30480000, 0.02190750
2298, 0.60960000, 0.30480000, 0.02190750
2299, 0.68580000, 0.30480000, 0.02190750
2300, 0.76200000, 0.30480000, 0.02190750
2301, 0.83820000, 0.30480000, 0.02190750
2302, 0.91440000, 0.30480000, 0.02190750
2303, 0.99060000, 0.30480000, 0.02190750
2304, 1.06680000, 0.30480000, 0.02190750
2305, 1.14300000, 0.30480000, 0.02190750
2306, 1.21920000, 0.30480000, 0.02190750
2307, 1.29540000, 0.30480000, 0.02190750
2308, 1.37160000, 0.30480000, 0.02190750
2309, 1.44780000, 0.30480000, 0.02190750
2310, 1.52400000, 0.30480000, 0.02190750
2311, 0.00000000, 0.38100000, 0.02190750
2312, 0.07620000, 0.38100000, 0.02190750
2313, 0.15240000, 0.38100000, 0.02190750
2314, 0.22860000, 0.38100000, 0.02190750
2315, 0.30480000, 0.38100000, 0.02190750
2316, 0.38100000, 0.38100000, 0.02190750
2317, 0.45720000, 0.38100000, 0.02190750
2318, 0.53340000, 0.38100000, 0.02190750
2319, 0.60960000, 0.38100000, 0.02190750
2320, 0.68580000, 0.38100000, 0.02190750
2321, 0.76200000, 0.38100000, 0.02190750
2322, 0.83820000, 0.38100000, 0.02190750
2323, 0.91440000, 0.38100000, 0.02190750
2324, 0.99060000, 0.38100000, 0.02190750
2325, 1.06680000, 0.38100000, 0.02190750
2326, 1.14300000, 0.38100000, 0.02190750
2327, 1.21920000, 0.38100000, 0.02190750
2328, 1.29540000, 0.38100000, 0.02190750
2329, 1.37160000, 0.38100000, 0.02190750
2330, 1.44780000, 0.38100000, 0.02190750
2331, 1.52400000, 0.38100000, 0.02190750
2332, 0.00000000, 0.45720000, 0.02190750
2333, 0.07620000, 0.45720000, 0.02190750
2334, 0.15240000, 0.45720000, 0.02190750
2335, 0.22860000, 0.45720000, 0.02190750
2336, 0.30480000, 0.45720000, 0.02190750
2337, 0.38100000, 0.45720000, 0.02190750
2338, 0.45720000, 0.45720000, 0.02190750
2339, 0.53340000, 0.45720000, 0.02190750
2340, 0.60960000, 0.45720000, 0.02190750
2341, 0.68580000, 0.45720000, 0.02190750
2342, 0.76200000, 0.45720000, 0.02190750
2343, 0.83820000, 0.45720000, 0.02190750
2344, 0.91440000, 0.45720000, 0.02190750
2345, 0.99060000, 0.45720000, 0.02190750
2346, 1.06680000, 0.45720000, 0.02190750
2347, 1.14300000, 0.45720000, 0.02190750
2348, 1.21920000, 0.45720000, 0.02190750
2349, 1.29540000, 0.45720000, 0.02190750
2350, 1.37160000, 0.45720000, 0.02190750
2351, 1.44780000, 0.45720000, 0.02190750
2352, 1.52400000, 0.45720000, 0.02190750
2353, 0.00000000, 0.53340000, 0.02190750
2354, 0.07620000, 0.53340000, 0.02190750
2355, 0.15240000, 0.53340000, 0.02190750
2356, 0.22860000, 0.53340000, 0.02190750
2357, 0.30480000, 0.53340000, 0.02190750
2358, 0.38100000, 0.53340000, 0.02190750
2359, 0.45720000, 0.53340000, 0.02190750
2360, 0.53340000, 0.53340000, 0.02190750
2361, 0.60960000, 0.53340000, 0.02190750
2362, 0.68580000, 0.53340000, 0.02190750
2363, 0.76200000, 0.53340000, 0.02190750
2364, 0.83820000, 0.53340000, 0.02190750
2365, 0.91440000, 0.53340000, 0.02190750
2366, 0.99060000, 0.53340000, 0.02190750
2367, 1.06680000, 0.53340000, 0.02190750
2368, 1.14300000, 0.53340000, 0.02190750
2369, 1.21920000, 0.53340000, 0.02190750
2370, 1.29540000, 0.53340000, 0.02190750
2371, 1.37160000, 0.53340000, 0.02190750
2372, 1.44780000, 0.53340000, 0.02190750
2373, 1.52400000, 0.53340000, 0.02190750
2374, 0.00000000, 0.60960000, 0.02190750
2375, 0.07620000, 0.60960000, 0.02190750
2376, 0.15240000, 0.60960000, 0.02190750
2377, 0.22860000, 0.60960000, 0.02190750
2378, 0.30480000, 0.60960000, 0.02190750
2379, 0.38100000, 0.60960000, 0.02190750
2380, 0.45720000, 0.60960000, 0.02190750
2381, 0.53340000, 0.60960000, 0.02190750
2382, 0.60960000, 0.60960000, 0.02190750
2383, 0.68580000, 0.60960000, 0.02190750
2384, 0.76200000, 0.60960000, 0.02190750
2385, 0.83820000, 0.60960000, 0.02190750
2386, 0.91440000, 0.60960000, 0.02190750
2387, 0.99060000, 0.60960000, 0.02190750
2388, 1.06680000, 0.60960000, 0.02190750
2389, 1.14300000, 0.60960000, 0.02190750
2390, 1.21920000, 0.60960000, 0.02190750
2391, 1.29540000, 0.60960000, 0.02190750
2392, 1.37160000, 0.60960000, 0.02190750
2393, 1.44780000, 0.60960000, 0.02190750
2394, 1.52400000, 0.60960000, 0.02190750
2395, 0.00000000, 0.68580000, 0.02190750
2396, 0.07620000, 0.68580000, 0.02190750
2397, 0.15240000, 0.68580000, 0.02190750
2398, 0.22860000, 0.68580000, 0.02190750
2399, 0.30480000, 0.68580000, 0.02190750
2400, 0.38100000, 0.68580000, 0.02190750
2401, 0.45720000, 0.68580000, 0.02190750
2402, 0.53340000, 0.68580000, 0.02190750
2403, 0.60960000, 0.68580000, 0.02190750
2404, 0.68580000, 0.68580000, 0.02190750
2405, 0.76200000, 0.68580000, 0.02190750
2406, 0.83820000, 0.68580000, 0.02190750
2407, 0.91440000, 0.68580000, 0.02190750
2408, 0.99060000, 0.68580000, 0.02190750
2409, 1.06680000, 0.68580000, 0.02190750
2410, 1.14300000, 0.68580000, 0.02190750
2411, 1.21920000, 0.68580000, 0.02190750
2412, 1.29540000, 0.68580000, 0.02190750
2413, 1.37160000, 0.68580000, 0.02190750
2414, 1.44780000, 0.68580000, 0.02190750
2415, 1.52400000, 0.68580000, 0.02190750
2416, 0.00000000, 0.76200000, 0.02190750
2417, 0.07620000, 0.76200000, 0.02190750
2418, 0.15240000, 0.76200000, 0.02190750
2419, 0.22860000, 0.76200000, 0.02190750
2420, 0.30480000, 0.76200000, 0.02190750
2421, 0.38100000, 0.76200000, 0.02190750
2422, 0.45720000, 0.76200000, 0.02190750
2423, 0.53340000, 0.76200000, 0.02190750
2424, 0.60960000, 0.76200000, 0.02190750
2425, 0.68580000, 0.76200000, 0.02190750
2426, 0.76200000, 0.76200000, 0.02190750
2427, 0.83820000, 0.76200000, 0.02190750
2428, 0.91440000, 0.76200000, 0.02190750
2429, 0.99060000, 0.76200000, 0.02190750
2430, 1.06680000, 0.76200000, 0.02190750
2431, 1.14300000, 0.76200000, 0.02190750
2432, 1.21920000, 0.76200000, 0.02190750
2433, 1.29540000, 0.76200000, 0.02190750
2434, 1.37160000, 0.76200000, 0.02190750
2435, 1.44780000, 0.76200000, 0.02190750
2436, 1.52400000, 0.76200000, 0.02190750
2437, 0.00000000, 0.83820000, 0.02190750
2438, 0.07620000, 0.83820000, 0.02190750
2439, 0.15240000, 0.83820000, 0.02190750
2440, 0.22860000, 0.83820000, 0.02190750
2441, 0.30480000, 0.83820000, 0.02190750
2442, 0.38100000, 0.83820000, 0.02190750
2443, 0.45720000, 0.83820000, 0.02190750
2444, 0.53340000, 0.83820000, 0.02190750
2445, 0.60960000, 0.83820000, 0.02190750
2446, 0.68580000, 0.83820000, 0.02190750
2447, 0.76200000, 0.83820000, 0.02190750
2448, 0.83820000, 0.83820000, 0.02190750
2449, 0.91440000, 0.83820000, 0.02190750
2450, 0.99060000, 0.83820000, 0.02190750
2451, 1.06680000, 0.83820000, 0.02190750
2452, 1.14300000, 0.83820000, 0.02190750
2453, 1.21920000, 0.83820000, 0.02190750
2454, 1.29540000, 0.83820000, 0.02190750
2455, 1.37160000, 0.83820000, 0.02190750
2456, 1.44780000, 0.83820000, 0.02190750
2457, 1.52400000, 0.83820000, 0.02190750
2458, 0.00000000, 0.91440000, 0.02190750
2459, 0.07620000, 0.91440000, 0.02190750
2460, 0.15240000, 0.91440000, 0.02190750
2461, 0.22860000, 0.91440000, 0.02190750
2462, 0.30480000, 0.91440000, 0.02190750
2463, 0.38100000, 0.91440000, 0.02190750
2464, 0.45720000, 0.91440000, 0.02190750
2465, 0.53340000, 0.91440000, 0.02190750
2466, 0.60960000, 0.91440000, 0.02190750
2467, 0.68580000, 0.91440000, 0.02190750
2468, 0.76200000, 0.91440000, 0.02190750
2469, 0.83820000, 0.91440000, 0.02190750
2470, 0.91440000, 0.91440000, 0.02190750
2471, 0.99060000, 0.91440000, 0.02190750
2472, 1.06680000, 0.91440000, 0.02190750
2473, 1.14300000, 0.91440000, 0.02190750
2474, 1.21920000, 0.91440000, 0.02190750
2475, 1.29540000, 0.91440000, 0.02190750
2476, 1.37160000, 0.91440000, 0.02190750
2477, 1.44780000, 0.91440000, 0.02190750
2478, 1.52400000, 0.91440000, 0.02190750
2479, 0.00000000, 0.99060000, 0.02190750
2480, 0.07620000, 0.99060000, 0.02190750
2481, 0.15240000, 0.99060000, 0.02190750
2482, 0.22860000, 0.99060000, 0.02190750
2483, 0.30480000, 0.99060000, 0.02190750
2484, 0.38100000, 0.99060000, 0.02190750
2485, 0.45720000, 0.99060000, 0.02190750
2486, 0.53340000, 0.99060000, 0.02190750
2487, 0.60960000, 0.99060000, 0.02190750
2488, 0.68580000, 0.99060000, 0.02190750
2489, 0.76200000, 0.99060000, 0.02190750
2490, 0.83820000, 0.99060000, 0.02190750
2491, 0.91440000, 0.99060000, 0.02190750
2492, 0.99060000, 0.99060000, 0.02190750
2493, 1.06680000, 0.99060000, 0.02190750
2494, 1.14300000, 0.99060000, 0.02190750
2495, 1.21920000, 0.99060000, 0.02190750
2496, 1.29540000, 0.99060000, 0.02190750
2497, 1.37160000, 0.99060000, 0.02190750
2498, 1.44780000, 0.99060000, 0.02190750
2499, 1.52400000, 0.99060000, 0.02190750
2500, 0.00000000, 1.06680000, 0.02190750
2501, 0.07620000, 1.06680000, 0.02190750
2502, 0.15240000, 1.06680000, 0.02190750
2503, 0.22860000, 1.06680000, 0.02190750
2504, 0.30480000, 1.06680000, 0.02190750
2505, 0.38100000, 1.06680000, 0.02190750
2506, 0.45720000, 1.06680000, 0.02190750
2507, 0.53340000, 1.06680000, 0.02190750
2508, 0.60960000, 1.06680000, 0.02190750
2509, 0.68580000, 1.06680000, 0.02190750
2510, 0.76200000, 1.06680000, 0.02190750
2511, 0.83820000, 1.06680000, 0.02190750
2512, 0.91440000, 1.06680000, 0.02190750
2513, 0.99060000, 1.06680000, 0.02190750
2514, 1.06680000, 1.06680000, 0.02190750
2515, 1.14300000, 1.06680000, 0.02190750
2516, 1.21920000, 1.06680000, 0.02190750
2517, 1.29540000, 1.06680000, 0.02190750
2518, 1.37160000, 1.06680000, 0.02190750
2519, 1.44780000, 1.06680000, 0.02190750
2520, 1.52400000, 1.06680000, 0.02190750
2521, 0.00000000, 1.14300000, 0.02190750
2522, 0.07620000, 1.14300000, 0.02190750
2523, 0.15240000, 1.14300000, 0.02190750
2524, 0.22860000, 1.14300000, 0.02190750
2525, 0.30480000, 1.14300000, 0.02190750
2526, 0.38100000, 1.14300000, 0.02190750
2527, 0.45720000, 1.14300000, 0.02190750
2528, 0.53340000, 1.14300000, 0.02190750
2529, 0.60960000, 1.14300000, 0.02190750
2530, 0.68580000, 1.14300000, 0.02190750
2531, 0.76200000, 1.14300000, 0.02190750
2532, 0.83820000, 1.14300000, 0.02190750
2533, 0.91440000, 1.14300000, 0.02190750
2534, 0.99060000, 1.14300000, 0.02190750
2535, 1.06680000, 1.14300000, 0.02190750
2536, 1.14300000, 1.14300000, 0.02190750
2537, 1.21920000, 1.14300000, 0.02190750
2538, 1.29540000, 1.14300000, 0.02190750
2539, 1.37160000, 1.14300000, 0.02190750
2540, 1.44780000, 1.14300000, 0.02190750
2541, 1.52400000, 1.14300000, 0.02190750
2542, 0.00000000, 1.21920000, 0.02190750
2543, 0.07620000, 1.21920000, 0.02190750
2544, 0.15240000, 1.21920000, 0.02190750
2545, 0.22860000, 1.21920000, 0.02190750
2546, 0.30480000, 1.21920000, 0.02190750
2547, 0.38100000, 1.21920000, 0.02190750
2548, 0.45720000, 1.21920000, 0.02190750
2549, 0.53340000, 1.21920000, 0.02190750
2550, 0.60960000, 1.21920000, 0.02190750
2551, 0.68580000, 1.21920000, 0.02190750
2552, 0.76200000, 1.21920000, 0.02190750
2553, 0.83820000, 1.21920000, 0.02190750
2554, 0.91440000, 1.21920000, 0.02190750
2555, 0.99060000, 1.21920000, 0.02190750
2556, 1.06680000, 1.21920000, 0.02190750
2557, 1.14300000, 1.21920000, 0.02190750
2558, 1.21920000, 1.21920000, 0.02190750
2559, 1.29540000, 1.21920000, 0.02190750
2560, 1.37160000, 1.21920000, 0.02190750
2561, 1.44780000, 1.21920000, 0.02190750
2562, 1.52400000, 1.21920000, 0.02190750
2563, 0.00000000, 1.29540000, 0.02190750
2564, 0.07620000, 1.29540000, 0.02190750
2565, 0.15240000, 1.29540000, 0.02190750
2566, 0.22860000, 1.29540000, 0.02190750
2567, 0.30480000, 1.29540000, 0.02190750
2568, 0.38100000, 1.29540000, 0.02190750
2569, 0.45720000, 1.29540000, 0.02190750
2570, 0.53340000, 1.29540000, 0.02190750
2571, 0.60960000, 1.29540000, 0.02190750
2572, 0.68580000, 1.29540000, 0.02190750
2573, 0.76200000, 1.29540000, 0.02190750
2574, 0.83820000, 1.29540000, 0.02190750
2575, 0.91440000, 1.29540000, 0.02190750
2576, 0.99060000, 1.29540000, 0.02190750
2577, 1.06680000, 1.29540000, 0.02190750
2578, 1.14300000, 1.29540000, 0.02190750
2579, 1.21920000, 1.29540000, 0.02190750
2580, 1.29540000, 1.29540000, 0.02190750
2581, 1.37160000, 1.29540000, 0.02190750
2582, 1.44780000, 1.29540000, 0.02190750
2583, 1.52400000, 1.29540000, 0.02190750
2584, 0.00000000, 1.37160000, 0.02190750
2585, 0.07620000, 1.37160000, 0.02190750
2586, 0.15240000, 1.37160000, 0.02190750
2587, 0.22860000, 1.37160000, 0.02190750
2588, 0.30480000, 1.37160000, 0.02190750
2589, 0.38100000, 1.37160000, 0.02190750
2590, 0.45720000, 1.37160000, 0.02190750
2591, 0.53340000, 1.37160000, 0.02190750
2592, 0.60960000, 1.37160000, 0.02190750
2593, 0.68580000, 1.37160000, 0.02190750
2594, 0.76200000, 1.37160000, 0.02190750
2595, 0.83820000, 1.37160000, 0.02190750
2596, 0.91440000, 1.37160000, 0.02190750
2597, 0.99060000, 1.37160000, 0.02190750
2598, 1.06680000, 1.37160000, 0.02190750
2599, 1.14300000, 1.37160000, 0.02190750
2600, 1.21920000, 1.37160000, 0.02190750
2601, 1.29540000, 1.37160000, 0.02190750
2602, 1.37160000, 1.37160000, 0.02190750
2603, 1.44780000, 1.37160000, 0.02190750
2604, 1.52400000, 1.37160000, 0.02190750
2605, 0.00000000, 1.44780000, 0.02190750
2606, 0.07620000, 1.44780000, 0.02190750
2607, 0.15240000, 1.44780000, 0.02190750
2608, 0.22860000, 1.44780000, 0.02190750
2609, 0.30480000, 1.44780000, 0.02190750
2610, 0.38100000, 1.44780000, 0.02190750
2611, 0.45720000, 1.44780000, 0.02190750
2612, 0.53340000, 1.44780000, 0.02190750
2613, 0.60960000, 1.44780000, 0.02190750
2614, 0.68580000, 1.44780000, 0.02190750
2615, 0.76200000, 1.44780000, 0.02190750
2616, 0.83820000, 1.44780000, 0.02190750
2617, 0.91440000, 1.44780000, 0.02190750
2618, 0.99060000, 1.44780000, 0.02190750
2619, 1.06680000, 1.44780000, 0.02190750
2620, 1.14300000, 1.44780000, 0.02190750
2621, 1.21920000, 1.44780000, 0.02190750
2622, 1.29540000, 1.44780000, 0.02190750
2623, 1.37160000, 1.44780000, 0.02190750
2624, 1.44780000, 1.44780000, 0.02190750
2625, 1.52400000, 1.44780000, 0.02190750
2626, 0.00000000, 1.52400000, 0.02190750
2627, 0.07620000, 1.52400000, 0.02190750
2628, 0.15240000, 1.52400000, 0.02190750
2629, 0.22860000, 1.52400000, 0.02190750
2630, 0.30480000, 1.52400000, 0.02190750
2631, 0.38100000, 1.52400000, 0.02190750
2632, 0.45720000, 1.52400000, 0.02190750
2633, 0.53340000, 1.52400000, 0.02190750
2634, 0.60960000, 1.52400000, 0.02190750
2635, 0.68580000, 1.52400000, 0.02190750
2636, 0.76200000, 1.52400000, 0.02190750
2637, 0.83820000, 1.52400000, 0.02190750
2638, 0.91440000, 1.52400000, 0.02190750
2639, 0.99060000, 1.52400000, 0.02190750
2640, 1.06680000, 1.52400000, 0.02190750
2641, 1.14300000, 1.52400000, 0.02190750
2642, 1.21920000, 1.52400000, 0.02190750
2643, 1.29540000, 1.52400000, 0.02190750
2644, 1.37160000, 1.52400000, 0.02190750
2645, 1.44780000, 1.52400000, 0.02190750
2646, 1.52400000, 1.52400000, 0.02190750
2647, 0.00000000, 0.00000000, 0.04000500
2648, 0.07620000, 0.00000000, 0.04000500
2649, 0.15240000, 0.00000000, 0.04000500
2650, 0.22860000, 0.00000000, 0.04000500
2651, 0.30480000, 0.00000000, 0.04000500
2652, 0.38100000, 0.00000000, 0.04000500
2653, 0.45720000, 0.00000000, 0.04000500
2654, 0.53340000, 0.00000000, 0.04000500
2655, 0.60960000, 0.00000000, 0.04000500
2656, 0.68580000, 0.00000000, 0.04000500
2657, 0.76200000, 0.00000000, 0.04000500
2658, 0.83820000, 0.00000000, 0.04000500
2659, 0.91440000, 0.00000000, 0.04000500
2660, 0.99060000, 0.00000000, 0.04000500
2661, 1.06680000, 0.00000000, 0.04000500
2662, 1.14300000, 0.00000000, 0.04000500
2663, 1.21920000, 0.00000000, 0.04000500
2664, 1.29540000, 0.00000000, 0.04000500
2665, 1.37160000, 0.00000000, 0.04000500
2666, 1.44780000, 0.00000000, 0.04000500
2667, 1.52400000, 0.00000000, 0.04000500
2668, 0.00000000, 0.07620000, 0.04000500
2669, 0.07620000, 0.07620000, 0.04000500
2670, 0.15240000, 0.07620000, 0.04000500
2671, 0.22860000, 0.07620000, 0.04000500
2672, 0.30480000, 0.07620000, 0.04000500
2673, 0.38100000, 0.07620000, 0.04000500
2674, 0.45720000, 0.07620000, 0.04000500
2675, 0.53340000, 0.07620000, 0.04000500
2676, 0.60960000, 0.07620000, 0.04000500
2677, 0.68580000, 0.07620000, 0.04000500
2678, 0.76200000, 0.07620000, 0.04000500
2679, 0.83820000, 0.07620000, 0.04000500
2680, 0.91440000, 0.07620000, 0.04000500
2681, 0.99060000, 0.07620000, 0.04000500
2682, 1.06680000, 0.07620000, 0.04000500
2683, 1.14300000, 0.07620000, 0.04000500
2684, 1.21920000, 0.07620000, 0.04000500
2685, 1.29540000, 0.07620000, 0.04000500
2686, 1.37160000, 0.07620000, 0.04000500
2687, 1.44780000, 0.07620000, 0.04000500
2688, 1.52400000, 0.07620000, 0.04000500
2689, 0.00000000, 0.15240000, 0.04000500
2690, 0.07620000, 0.15240000, 0.04000500
2691, 0.15240000, 0.15240000, 0.04000500
2692, 0.22860000, 0.15240000, 0.04000500
2693, 0.30480000, 0.15240000, 0.04000500
2694, 0.38100000, 0.15240000, 0.04000500
2695, 0.45720000, 0.15240000, 0.04000500
2696, 0.53340000, 0.15240000, 0.04000500
2697, 0.60960000, 0.15240000, 0.04000500
2698, 0.68580000, 0.15240000, 0.04000500
2699, 0.76200000, 0.15240000, 0.04000500
2700, 0.83820000, 0.15240000, 0.04000500
2701, 0.91440000, 0.15240000, 0.04000500
2702, 0.99060000, 0.15240000, 0.04000500
2703, 1.06680000, 0.15240000, 0.04000500
2704, 1.14300000, 0.15240000, 0.04000500
2705, 1.21920000, 0.15240000, 0.04000500
2706, 1.29540000, 0.15240000, 0.04000500
2707, 1.37160000, 0.15240000, 0.04000500
2708, 1.44780000, 0.15240000, 0.04000500
2709, 1.52400000, 0.15240000, 0.04000500
2710, 0.00000000, 0.22860000, 0.04000500
2711, 0.07620000, 0.22860000, 0.04000500
2712, 0.15240000, 0.22860000, 0.04000500
2713, 0.22860000, 0.22860000, 0.04000500
2714, 0.30480000, 0.22860000, 0.04000500
2715, 0.38100000, 0.22860000, 0.04000500
2716, 0.45720000, 0.22860000, 0.04000500
2717, 0.53340000, 0.22860000, 0.04000500
2718, 0.60960000, 0.22860000, 0.04000500
2719, 0.68580000, 0.22860000, 0.04000500
2720, 0.76200000, 0.22860000, 0.04000500
2721, 0.83820000, 0.22860000, 0.04000500
2722, 0.91440000, 0.22860000, 0.04000500
2723, 0.99060000, 0.22860000, 0.04000500
2724, 1.06680000, 0.22860000, 0.04000500
2725, 1.14300000, 0.22860000, 0.04000500
2726, 1.21920000, 0.22860000, 0.04000500
2727, 1.29540000, 0.22860000, 0.04000500
2728, 1.37160000, 0.22860000, 0.04000500
2729, 1.44780000, 0.22860000, 0.04000500
2730, 1.52400000, 0.22860000, 0.04000500
2731, 0.00000000, 0.30480000, 0.04000500
2732, 0.07620000, 0.30480000, 0.04000500
2733, 0.15240000, 0.30480000, 0.04000500
2734, 0.22860000, 0.30480000, 0.04000500
2735, 0.30480000, 0.30480000, 0.04000500
2736, 0.38100000, 0.30480000, 0.04000500
2737, 0.45720000, 0.30480000, 0.04000500
2738, 0.53340000, 0.30480000, 0.04000500
2739, 0.60960000, 0.30480000, 0.04000500
2740, 0.68580000, 0.30480000, 0.04000500
2741, 0.76200000, 0.30480000, 0.04000500
2742, 0.83820000, 0.30480000, 0.04000500
2743, 0.91440000, 0.30480000, 0.04000500
2744, 0.99060000, 0.30480000, 0.04000500
2745, 1.06680000, 0.30480000, 0.04000500
2746, 1.14300000, 0.30480000, 0.04000500
2747, 1.21920000, 0.30480000, 0.04000500
2748, 1.29540000, 0.30480000, 0.04000500
2749, 1.37160000, 0.30480000, 0.04000500
2750, 1.44780000, 0.30480000, 0.04000500
2751, 1.52400000, 0.30480000, 0.04000500
2752, 0.00000000, 0.38100000, 0.04000500
2753, 0.07620000, 0.38100000, 0.04000500
2754, 0.15240000, 0.38100000, 0.04000500
2755, 0.22860000, 0.38100000, 0.04000500
2756, 0.30480000, 0.38100000, 0.04000500
2757, 0.38100000, 0.38100000, 0.04000500
2758, 0.45720000, 0.38100000, 0.04000500
2759, 0.53340000, 0.38100000, 0.04000500
2760, 0.60960000, 0.38100000, 0.04000500
2761, 0.68580000, 0.38100000, 0.04000500
2762, 0.76200000, 0.38100000, 0.04000500
2763, 0.83820000, 0.38100000, 0.04000500
2764, 0.91440000, 0.38100000, 0.04000500
2765, 0.99060000, 0.38100000, 0.04000500
2766, 1.06680000, 0.38100000, 0.04000500
2767, 1.14300000, 0.38100000, 0.04000500
2768, 1.21920000, 0.38100000, 0.04000500
2769, 1.29540000, 0.38100000, 0.04000500
2770, 1.37160000, 0.38100000, 0.04000500
2771, 1.44780000, 0.38100000, 0.04000500
2772, 1.52400000, 0.38100000, 0.04000500
2773, 0.00000000, 0.45720000, 0.04000500
2774, 0.07620000, 0.45720000, 0.04000500
2775, 0.15240000, 0.45720000, 0.04000500
2776, 0.22860000, 0.45720000, 0.04000500
2777, 0.30480000, 0.45720000, 0.04000500
2778, 0.38100000, 0.45720000, 0.04000500
2779, 0.45720000, 0.45720000, 0.04000500
2780, 0.53340000, 0.45720000, 0.04000500
2781, 0.60960000, 0.45720000, 0.04000500
2782, 0.68580000, 0.45720000, 0.04000500
2783, 0.76200000, 0.45720000, 0.04000500
2784, 0.83820000, 0.45720000, 0.04000500
2785, 0.91440000, 0.45720000, 0.04000500
2786, 0.99060000, 0.45720000, 0.04000500
2787, 1.06680000, 0.45720000, 0.04000500
2788, 1.14300000, 0.45720000, 0.04000500
2789, 1.21920000, 0.45720000, 0.04000500
2790, 1.29540000, 0.45720000, 0.04000500
2791, 1.37160000, 0.45720000, 0.04000500
2792, 1.44780000, 0.45720000, 0.04000500
2793, 1.52400000, 0.45720000, 0.04000500
2794, 0.00000000, 0.53340000, 0.04000500
2795, 0.07620000, 0.53340000, 0.04000500
2796, 0.15240000, 0.53340000, 0.04000500
2797, 0.22860000, 0.53340000, 0.04000500
2798, 0.30480000, 0.53340000, 0.04000500
2799, 0.38100000, 0.53340000, 0.04000500
2800, 0.45720000, 0.53340000, 0.04000500
2801, 0.53340000, 0.53340000, 0.04000500
2802, 0.60960000, 0.53340000, 0.04000500
2803, 0.68580000, 0.53340000, 0.04000500
2804, 0.76200000, 0.53340000, 0.04000500
2805, 0.83820000, 0.53340000, 0.04000500
2806, 0.91440000, 0.53340000, 0.04000500
2807, 0.99060000, 0.53340000, 0.04000500
2808, 1.06680000, 0.53340000, 0.04000500
2809, 1.14300000, 0.53340000, 0.04000500
2810, 1.21920000, 0.53340000, 0.04000500
2811, 1.29540000, 0.53340000, 0.04000500
2812, 1.37160000, 0.53340000, 0.04000500
2813, 1.44780000, 0.53340000, 0.04000500
2814, 1.52400000, 0.53340000, 0.04000500
2815, 0.00000000, 0.60960000, 0.04000500
2816, 0.07620000, 0.60960000, 0.04000500
2817, 0.15240000, 0.60960000, 0.04000500
2818, 0.22860000, 0.60960000, 0.04000500
2819, 0.30480000, 0.60960000, 0.04000500
2820, 0.38100000, 0.60960000, 0.04000500
2821, 0.45720000, 0.60960000, 0.04000500
2822, 0.53340000, 0.60960000, 0.04000500
2823, 0.60960000, 0.60960000, 0.04000500
2824, 0.68580000, 0.60960000, 0.04000500
2825, 0.76200000, 0.60960000, 0.04000500
2826, 0.83820000, 0.60960000, 0.04000500
2827, 0.91440000, 0.60960000, 0.04000500
2828, 0.99060000, 0.60960000, 0.04000500
2829, 1.06680000, 0.60960000, 0.04000500
2830, 1.14300000, 0.60960000, 0.04000500
2831, 1.21920000, 0.60960000, 0.04000500
2832, 1.29540000, 0.60960000, 0.04000500
2833, 1.37160000, 0.60960000, 0.04000500
2834, 1.44780000, 0.60960000, 0.04000500
2835, 1.52400000, 0.60960000, 0.04000500
2836, 0.00000000, 0.68580000, 0.04000500
2837, 0.07620000, 0.68580000, 0.04000500
2838, 0.15240000, 0.68580000, 0.04000500
2839, 0.22860000, 0.68580000, 0.04000500
2840, 0.30480000, 0.68580000, 0.04000500
2841, 0.38100000, 0.68580000, 0.04000500
2842, 0.45720000, 0.68580000, 0.04000500
2843, 0.53340000, 0.68580000, 0.04000500
2844, 0.60960000, 0.68580000, 0.04000500
2845, 0.68580000, 0.68580000, 0.04000500
2846, 0.76200000, 0.68580000, 0.04000500
2847, 0.83820000, 0.68580000, 0.04000500
2848, 0.91440000, 0.68580000, 0.04000500
2849, 0.99060000, 0.68580000, 0.04000500
2850, 1.06680000, 0.68580000, 0.04000500
2851, 1.14300000, 0.68580000, 0.04000500
2852, 1.21920000, 0.68580000, 0.04000500
2853, 1.29540000, 0.68580000, 0.04000500
2854, 1.37160000, 0.68580000, 0.04000500
2855, 1.44780000, 0.68580000, 0.04000500
2856, 1.52400000, 0.68580000, 0.04000500
2857, 0.00000000, 0.76200000, 0.04000500
2858, 0.07620000, 0.76200000, 0.04000500
2859, 0.15240000, 0.76200000, 0.04000500
2860, 0.22860000, 0.76200000, 0.04000500
2861, 0.30480000, 0.76200000, 0.04000500
2862, 0.38100000, 0.76200000, 0.04000500
2863, 0.45720000, 0.76200000, 0.04000500
2864, 0.53340000, 0.76200000, 0.04000500
2865, 0.60960000, 0.76200000, 0.04000500
2866, 0.68580000, 0.76200000, 0.04000500
2867, 0.76200000, 0.76200000, 0.04000500
2868, 0.83820000, 0.76200000, 0.04000500
2869, 0.91440000, 0.76200000, 0.04000500
2870, 0.99060000, 0.76200000, 0.04000500
2871, 1.06680000, 0.76200000, 0.04000500
2872, 1.14300000, 0.76200000, 0.04000500
2873, 1.21920000, 0.76200000, 0.04000500
2874, 1.29540000, 0.76200000, 0.04000500
2875, 1.37160000, 0.76200000, 0.04000500
2876, 1.44780000, 0.76200000, 0.04000500
2877, 1.52400000, 0.76200000, 0.04000500
2878, 0.00000000, 0.83820000, 0.04000500
2879, 0.07620000, 0.83820000, 0.04000500
2880, 0.15240000, 0.83820000, 0.04000500
2881, 0.22860000, 0.83820000, 0.04000500
2882, 0.30480000, 0.83820000, 0.04000500
2883, 0.38100000, 0.83820000, 0.04000500
2884, 0.45720000, 0.83820000, 0.04000500
2885, 0.53340000, 0.83820000, 0.04000500
2886, 0.60960000, 0.83820000, 0.04000500
2887, 0.68580000, 0.83820000, 0.04000500
2888, 0.76200000, 0.83820000, 0.04000500
2889, 0.83820000, 0.83820000, 0.04000500
2890, 0.91440000, 0.83820000, 0.04000500
2891, 0.99060000, 0.83820000, 0.04000500
2892, 1.06680000, 0.83820000, 0.04000500
2893, 1.14300000, 0.83820000, 0.04000500
2894, 1.21920000, 0.83820000, 0.04000500
2895, 1.29540000, 0.83820000, 0.04000500
2896, 1.37160000, 0.83820000, 0.04000500
2897, 1.44780000, 0.83820000, 0.04000500
2898, 1.52400000, 0.83820000, 0.04000500
2899, 0.00000000, 0.91440000, 0.04000500
2900, 0.07620000, 0.91440000, 0.04000500
2901, 0.15240000, 0.91440000, 0.04000500
2902, 0.22860000, 0.91440000, 0.04000500
2903, 0.30480000, 0.91440000, 0.04000500
2904, 0.38100000, 0.91440000, 0.04000500
2905, 0.45720000, 0.91440000, 0.04000500
2906, 0.53340000, 0.91440000, 0.04000500
2907, 0.60960000, 0.91440000, 0.04000500
2908, 0.68580000, 0.91440000, 0.04000500
2909, 0.76200000, 0.91440000, 0.04000500
2910, 0.83820000, 0.91440000, 0.04000500
2911, 0.91440000, 0.91440000, 0.04000500
2912, 0.99060000, 0.91440000, 0.04000500
2913, 1.06680000, 0.91440000, 0.04000500
2914, 1.14300000, 0.91440000, 0.04000500
2915, 1.21920000, 0.91440000, 0.04000500
2916, 1.29540000, 0.91440000, 0.04000500
2917, 1.37160000, 0.91440000, 0.04000500
2918, 1.44780000, 0.91440000, 0.04000500
2919, 1.52400000, 0.91440000, 0.04000500
2920, 0.00000000, 0.99060000, 0.04000500
2921, 0.07620000, 0.99060000, 0.04000500
2922, 0.15240000, 0.99060000, 0.04000500
2923, 0.22860000, 0.99060000, 0.04000500
2924, 0.30480000, 0.99060000, 0.04000500
2925, 0.38100000, 0.99060000, 0.04000500
2926, 0.45720000, 0.99060000, 0.04000500
2927, 0.53340000, 0.99060000, 0.04000500
2928, 0.60960000, 0.99060000, 0.04000500
2929, 0.68580000, 0.99060000, 0.04000500
2930, 0.76200000, 0.99060000, 0.04000500
2931, 0.83820000, 0.99060000, 0.04000500
2932, 0.91440000, 0.99060000, 0.04000500
2933, 0.99060000, 0.99060000, 0.04000500
2934, 1.06680000, 0.99060000, 0.04000500
2935, 1.14300000, 0.99060000, 0.04000500
2936, 1.21920000, 0.99060000, 0.04000500
2937, 1.29540000, 0.99060000, 0.04000500
2938, 1.37160000, 0.99060000, 0.04000500
2939, 1.44780000, 0.99060000, 0.04000500
2940, 1.52400000, 0.99060000, 0.04000500
2941, 0.00000000, 1.06680000, 0.04000500
2942, 0.07620000, 1.06680000, 0.04000500
2943, 0.15240000, 1.06680000, 0.04000500
2944, 0.22860000, 1.06680000, 0.04000500
2945, 0.30480000, 1.06680000, 0.04000500
2946, 0.38100000, 1.06680000, 0.04000500
2947, 0.45720000, 1.06680000, 0.04000500
2948, 0.53340000, 1.06680000, 0.04000500
2949, 0.60960000, 1.06680000, 0.04000500
2950, 0.68580000, 1.06680000, 0.04000500
2951, 0.76200000, 1.06680000, 0.04000500
2952, 0.83820000, 1.06680000, 0.04000500
2953, 0.91440000, 1.06680000, 0.04000500
2954, 0.99060000, 1.06680000, 0.04000500
2955, 1.06680000, 1.06680000, 0.04000500
2956, 1.14300000, 1.06680000, 0.04000500
2957, 1.21920000, 1.06680000, 0.04000500
2958, 1.29540000, 1.06680000, 0.04000500
2959, 1.37160000, 1.06680000, 0.04000500
2960, 1.44780000, 1.06680000, 0.04000500
2961, 1.52400000, 1.06680000, 0.04000500
2962, 0.00000000, 1.14300000, 0.04000500
2963, 0.07620000, 1.14300000, 0.04000500
2964, 0.15240000, 1.14300000, 0.04000500
2965, 0.22860000, 1.14300000, 0.04000500
2966, 0.30480000, 1.14300000, 0.04000500
2967, 0.38100000, 1.14300000, 0.04000500
2968, 0.45720000, 1.14300000, 0.04000500
2969, 0.53340000, 1.14300000, 0.04000500
2970, 0.60960000, 1.14300000, 0.04000500
2971, 0.68580000, 1.14300000, 0.04000500
2972, 0.76200000, 1.14300000, 0.04000500
2973, 0.83820000, 1.14300000, 0.04000500
2974, 0.91440000, 1.14300000, 0.04000500
2975, 0.99060000, 1.14300000, 0.04000500
2976, 1.06680000, 1.14300000, 0.04000500
2977, 1.14300000, 1.14300000, 0.04000500
2978, 1.21920000, 1.14300000, 0.04000500
2979, 1.29540000, 1.14300000, 0.04000500
2980, 1.37160000, 1.14300000, 0.04000500
2981, 1.44780000, 1.14300000, 0.04000500
2982, 1.52400000, 1.14300000, 0.04000500
2983, 0.00000000, 1.21920000, 0.04000500
2984, 0.07620000, 1.21920000, 0.04000500
2985, 0.15240000, 1.21920000, 0.04000500
2986, 0.22860000, 1.21920000, 0.04000500
2987, 0.30480000, 1.21920000, 0.04000500
2988, 0.38100000, 1.21920000, 0.04000500
2989, 0.45720000, 1.21920000, 0.04000500
2990, 0.53340000, 1.21920000, 0.04000500
2991, 0.60960000, 1.21920000, 0.04000500
2992, 0.68580000, 1.21920000, 0.04000500
2993, 0.76200000, 1.21920000, 0.04000500
2994, 0.83820000, 1.21920000, 0.04000500
2995, 0.91440000, 1.21920000, 0.04000500
2996, 0.99060000, 1.21920000, 0.04000500
2997, 1.06680000, 1.21920000, 0.04000500
2998, 1.14300000, 1.21920000, 0.04000500
2999, 1.21920000, 1.21920000, 0.04000500
3000, 1.29540000, 1.21920000, 0.04000500
3001, 1.37160000, 1.21920000, 0.04000500
3002, 1.44780000, 1.21920000, 0.04000500
3003, 1.52400000, 1.21920000, 0.04000500
3004, 0.00000000, 1.29540000, 0.04000500
3005, 0.07620000, 1.29540000, 0.04000500
3006, 0.15240000, 1.29540000, 0.04000500
3007, 0.22860000, 1.29540000, 0.04000500
3008, 0.30480000, 1.29540000, 0.04000500
3009, 0.38100000, 1.29540000, 0.04000500
3010, 0.45720000, 1.29540000, 0.04000500
3011, 0.53340000, 1.29540000, 0.04000500
3012, 0.60960000, 1.29540000, 0.04000500
3013, 0.68580000, 1.29540000, 0.04000500
3014, 0.76200000, 1.29540000, 0.04000500
3015, 0.83820000, 1.29540000, 0.04000500
3016, 0.91440000, 1.29540000, 0.04000500
3017, 0.99060000, 1.29540000, 0.04000500
3018, 1.06680000, 1.29540000, 0.04000500
3019, 1.14300000, 1.29540000, 0.04000500
3020, 1.21920000, 1.29540000, 0.04000500
3021, 1.29540000, 1.29540000, 0.04000500
3022, 1.37160000, 1.29540000, 0.04000500
3023, 1.44780000, 1.29540000, 0.04000500
3024, 1.52400000, 1.29540000, 0.04000500
3025, 0.00000000, 1.37160000, 0.04000500
3026, 0.07620000, 1.37160000, 0.04000500
3027, 0.15240000, 1.37160000, 0.04000500
3028, 0.22860000, 1.37160000, 0.04000500
3029, 0.30480000, 1.37160000, 0.04000500
3030, 0.38100000, 1.37160000, 0.04000500
3031, 0.45720000, 1.37160000, 0.04000500
3032, 0.53340000, 1.37160000, 0.04000500
3033, 0.60960000, 1.37160000, 0.04000500
3034, 0.68580000, 1.37160000, 0.04000500
3035, 0.76200000, 1.37160000, 0.04000500
3036, 0.83820000, 1.37160000, 0.04000500
3037, 0.91440000, 1.37160000, 0.04000500
3038, 0.99060000, 1.37160000, 0.04000500
3039, 1.06680000, 1.37160000, 0.04000500
3040, 1.14300000, 1.37160000, 0.04000500
3041, 1.21920000, 1.37160000, 0.04000500
3042, 1.29540000, 1.37160000, 0.04000500
3043, 1.37160000, 1.37160000, 0.04000500
3044, 1.44780000, 1.37160000, 0.04000500
3045, 1.52400000, 1.37160000, 0.04000500
3046, 0.00000000, 1.44780000, 0.04000500
3047, 0.07620000, 1.44780000, 0.04000500
3048, 0.15240000, 1.44780000, 0.04000500
3049, 0.22860000, 1.44780000, 0.04000500
3050, 0.30480000, 1.44780000, 0.04000500
3051, 0.38100000, 1.44780000, 0.04000500
3052, 0.45720000, 1.44780000, 0.04000500
3053, 0.53340000, 1.44780000, 0.04000500
3054, 0.60960000, 1.44780000, 0.04000500
3055, 0.68580000, 1.44780000, 0.04000500
3056, 0.76200000, 1.44780000, 0.04000500
3057, 0.83820000, 1.44780000, 0.04000500
3058, 0.91440000, 1.44780000, 0.04000500
3059, 0.99060000, 1.44780000, 0.04000500
3060, 1.06680000, 1.44780000, 0.04000500
3061, 1.14300000, 1.44780000, 0.04000500
3062, 1.21920000, 1.44780000, 0.04000500
3063, 1.29540000, 1.44780000, 0.04000500
3064, 1.37160000, 1.44780000, 0.04000500
3065, 1.44780000, 1.44780000, 0.04000500
3066, 1.52400000, 1.44780000, 0.04000500
3067, 0.00000000, 1.52400000, 0.04000500
3068, 0.07620000, 1.52400000, 0.04000500
3069, 0.15240000, 1.52400000, 0.04000500
3070, 0.22860000, 1.52400000, 0.04000500
3071, 0.30480000, 1.52400000, 0.04000500
3072, 0.38100000, 1.52400000, 0.04000500
3073, 0.45720000, 1.52400000, 0.04000500
3074, 0.53340000, 1.52400000, 0.04000500
3075, 0.60960000, 1.52400000, 0.04000500
3076, 0.68580000, 1.52400000, 0.04000500
3077, 0.76200000, 1.52400000, 0.04000500
3078, 0.83820000, 1.52400000, 0.04000500
3079, 0.91440000, 1.52400000, 0.04000500
3080, 0.99060000, 1.52400000, 0.04000500
3081, 1.06680000, 1.52400000, 0.04000500
3082, 1.14300000, 1.52400000, 0.04000500
3083, 1.21920000, 1.52400000, 0.04000500
3084, 1.29540000, 1.52400000, 0.04000500
3085, 1.37160000, 1.52400000, 0.04000500
3086, 1.44780000, 1.52400000, 0.04000500
3087, 1.52400000, 1.52400000, 0.04000500
3088, 0.00000000, 0.00000000, 0.05810250
3089, 0.07620000, 0.00000000, 0.05810250
3090, 0.15240000, 0.00000000, 0.05810250
3091, 0.22860000, 0.00000000, 0.05810250
3092, 0.30480000, 0.00000000, 0.05810250
3093, 0.38100000, 0.00000000, 0.05810250
3094, 0.45720000, 0.00000000, 0.05810250
3095, 0.53340000, 0.00000000, 0.05810250
3096, 0.60960000, 0.00000000, 0.05810250
3097, 0.68580000, 0.00000000, 0.05810250
3098, 0.76200000, 0.00000000, 0.05810250
3099, 0.83820000, 0.00000000, 0.05810250
3100, 0.91440000, 0.00000000, 0.05810250
3101, 0.99060000, 0.00000000, 0.05810250
3102, 1.06680000, 0.00000000, 0.05810250
3103, 1.14300000, 0.00000000, 0.05810250
3104, 1.21920000, 0.00000000, 0.05810250
3105, 1.29540000, 0.00000000, 0.05810250
3106, 1.37160000, 0.00000000, 0.05810250
3107, 1.44780000, 0.00000000, 0.05810250
3108, 1.52400000, 0.00000000, 0.05810250
3109, 0.00000000, 0.07620000, 0.05810250
3110, 0.07620000, 0.07620000, 0.05810250
3111, 0.15240000, 0.07620000, 0.05810250
3112, 0.22860000, 0.07620000, 0.05810250
3113, 0.30480000, 0.07620000, 0.05810250
3114, 0.38100000, 0.07620000, 0.05810250
3115, 0.45720000, 0.07620000, 0.05810250
3116, 0.53340000, 0.07620000, 0.05810250
3117, 0.60960000, 0.07620000, 0.05810250
3118, 0.68580000, 0.07620000, 0.05810250
3119, 0.76200000, 0.07620000, 0.05810250
3120, 0.83820000, 0.07620000, 0.05810250
3121, 0.91440000, 0.07620000, 0.05810250
3122, 0.99060000, 0.07620000, 0.05810250
3123, 1.06680000, 0.07620000, 0.05810250
3124, 1.14300000, 0.07620000, 0.05810250
3125, 1.21920000, 0.07620000, 0.05810250
3126, 1.29540000, 0.07620000, 0.05810250
3127, 1.37160000, 0.07620000, 0.05810250
3128, 1.44780000, 0.07620000, 0.05810250
3129, 1.52400000, 0.07620000, 0.05810250
3130, 0.00000000, 0.15240000, 0.05810250
3131, 0.07620000, 0.15240000, 0.05810250
3132, 0.15240000, 0.15240000, 0.05810250
3133, 0.22860000, 0.15240000, 0.05810250
3134, 0.30480000, 0.15240000, 0.05810250
3135, 0.38100000, 0.15240000, 0.05810250
3136, 0.45720000, 0.15240000, 0.05810250
3137, 0.53340000, 0.15240000, 0.05810250
3138, 0.60960000, 0.15240000, 0.05810250
3139, 0.68580000, 0.15240000, 0.05810250
3140, 0.76200000, 0.15240000, 0.05810250
3141, 0.83820000, 0.15240000, 0.05810250
3142, 0.91440000, 0.15240000, 0.05810250
3143, 0.99060000, 0.15240000, 0.05810250
3144, 1.06680000, 0.15240000, 0.05810250
3145, 1.14300000, 0.15240000, 0.05810250
3146, 1.21920000, 0.15240000, 0.05810250
3147, 1.29540000, 0.15240000, 0.05810250
3148, 1.37160000, 0.15240000, 0.05810250
3149, 1.44780000, 0.15240000, 0.05810250
3150, 1.52400000, 0.15240000, 0.05810250
3151, 0.00000000, 0.22860000, 0.05810250
3152, 0.07620000, 0.22860000, 0.05810250
3153, 0.15240000, 0.22860000, 0.05810250
3154, 0.22860000, 0.22860000, 0.05810250
3155, 0.30480000, 0.22860000, 0.05810250
3156, 0.38100000, 0.22860000, 0.05810250
3157, 0.45720000, 0.22860000, 0.05810250
3158, 0.53340000, 0.22860000, 0.05810250
3159, 0.60960000, 0.22860000, 0.05810250
3160, 0.68580000, 0.22860000, 0.05810250
3161, 0.76200000, 0.22860000, 0.05810250
3162, 0.83820000, 0.22860000, 0.05810250
3163, 0.91440000, 0.22860000, 0.05810250
3164, 0.99060000, 0.22860000, 0.05810250
3165, 1.06680000, 0.22860000, 0.05810250
3166, 1.14300000, 0.22860000, 0.05810250
3167, 1.21920000, 0.22860000, 0.05810250
3168, 1.29540000, 0.22860000, 0.05810250
3169, 1.37160000, 0.22860000, 0.05810250
3170, 1.44780000, 0.22860000, 0.05810250
3171, 1.52400000, 0.22860000, 0.05810250
3172, 0.00000000, 0.30480000, 0.05810250
3173, 0.07620000, 0.30480000, 0.05810250
3174, 0.15240000, 0.30480000, 0.05810250
3175, 0.22860000, 0.30480000, 0.05810250
3176, 0.30480000, 0.30480000, 0.05810250
3177, 0.38100000, 0.30480000, 0.05810250
3178, 0.45720000, 0.30480000, 0.05810250
3179, 0.53340000, 0.30480000, 0.05810250
3180, 0.60960000, 0.30480000, 0.05810250
3181, 0.68580000, 0.30480000, 0.05810250
3182, 0.76200000, 0.30480000, 0.05810250
3183, 0.83820000, 0.30480000, 0.05810250
3184, 0.91440000, 0.30480000, 0.05810250
3185, 0.99060000, 0.30480000, 0.05810250
3186, 1.06680000, 0.30480000, 0.05810250
3187, 1.14300000, 0.30480000, 0.05810250
3188, 1.21920000, 0.30480000, 0.05810250
3189, 1.29540000, 0.30480000, 0.05810250
3190, 1.37160000, 0.30480000, 0.05810250
3191, 1.44780000, 0.30480000, 0.05810250
3192, 1.52400000, 0.30480000, 0.05810250
3193, 0.00000000, 0.38100000, 0.05810250
3194, 0.07620000, 0.38100000, 0.05810250
3195, 0.15240000, 0.38100000, 0.05810250
3196, 0.22860000, 0.38100000, 0.05810250
3197, 0.30480000, 0.38100000, 0.05810250
3198, 0.38100000, 0.38100000, 0.05810250
3199, 0.45720000, 0.38100000, 0.05810250
3200, 0.53340000, 0.38100000, 0.05810250
3201, 0.60960000, 0.38100000, 0.05810250
3202, 0.68580000, 0.38100000, 0.05810250
3203, 0.76200000, 0.38100000, 0.05810250
3204, 0.83820000, 0.38100000, 0.05810250
3205, 0.91440000, 0.38100000, 0.05810250
3206, 0.99060000, 0.38100000, 0.05810250
3207, 1.06680000, 0.38100000, 0.05810250
3208, 1.14300000, 0.38100000, 0.05810250
3209, 1.21920000, 0.38100000, 0.05810250
3210, 1.29540000, 0.38100000, 0.05810250
3211, 1.37160000, 0.38100000, 0.05810250
3212, 1.44780000, 0.38100000, 0.05810250
3213, 1.52400000, 0.38100000, 0.05810250
3214, 0.00000000, 0.45720000, 0.05810250
3215, 0.07620000, 0.45720000, 0.05810250
3216, 0.15240000, 0.45720000, 0.05810250
3217, 0.22860000, 0.45720000, 0.05810250
3218, 0.30480000, 0.45720000, 0.05810250
3219, 0.38100000, 0.45720000, 0.05810250
3220, 0.45720000, 0.45720000, 0.05810250
3221, 0.53340000, 0.45720000, 0.05810250
3222, 0.60960000, 0.45720000, 0.05810250
3223, 0.68580000, 0.45720000, 0.05810250
3224, 0.76200000, 0.45720000, 0.05810250
3225, 0.83820000, 0.45720000, 0.05810250
3226, 0.91440000, 0.45720000, 0.05810250
3227, 0.99060000, 0.45720000, 0.05810250
3228, 1.06680000, 0.45720000, 0.05810250
3229, 1.14300000, 0.45720000, 0.05810250
3230, 1.21920000, 0.45720000, 0.05810250
3231, 1.29540000, 0.45720000, 0.05810250
3232, 1.37160000, 0.45720000, 0.05810250
3233, 1.44780000, 0.45720000, 0.05810250
3234, 1.52400000, 0.45720000, 0.05810250
3235, 0.00000000, 0.53340000, 0.05810250
3236, 0.07620000, 0.53340000, 0.05810250
3237, 0.15240000, 0.53340000, 0.05810250
3238, 0.22860000, 0.53340000, 0.05810250
3239, 0.30480000, 0.53340000, 0.05810250
3240, 0.38100000, 0.53340000, 0.05810250
3241, 0.45720000, 0.53340000, 0.05810250
3242, 0.53340000, 0.53340000, 0.05810250
3243, 0.60960000, 0.53340000, 0.05810250
3244, 0.68580000, 0.53340000, 0.05810250
3245, 0.76200000, 0.53340000, 0.05810250
3246, 0.83820000, 0.53340000, 0.05810250
3247, 0.91440000, 0.53340000, 0.05810250
3248, 0.99060000, 0.53340000, 0.05810250
3249, 1.06680000, 0.53340000, 0.05810250
3250, 1.14300000, 0.53340000, 0.05810250
3251, 1.21920000, 0.53340000, 0.05810250
3252, 1.29540000, 0.53340000, 0.05810250
3253, 1.37160000, 0.53340000, 0.05810250
3254, 1.44780000, 0.53340000, 0.05810250
3255, 1.52400000, 0.53340000, 0.05810250
3256, 0.00000000, 0.60960000, 0.05810250
3257, 0.07620000, 0.60960000, 0.05810250
3258, 0.15240000, 0.60960000, 0.05810250
3259, 0.22860000, 0.60960000, 0.05810250
3260, 0.30480000, 0.60960000, 0.05810250
3261, 0.38100000, 0.60960000, 0.05810250
3262, 0.45720000, 0.60960000, 0.05810250
3263, 0.53340000, 0.60960000, 0.05810250
3264, 0.60960000, 0.60960000, 0.05810250
3265, 0.68580000, 0.60960000, 0.05810250
3266, 0.76200000, 0.60960000, 0.05810250
3267, 0.83820000, 0.60960000, 0.05810250
3268, 0.91440000, 0.60960000, 0.05810250
3269, 0.99060000, 0.60960000, 0.05810250
3270, 1.06680000, 0.60960000, 0.05810250
3271, 1.14300000, 0.60960000, 0.05810250
3272, 1.21920000, 0.60960000, 0.05810250
3273, 1.29540000, 0.60960000, 0.05810250
3274, 1.37160000, 0.60960000, 0.05810250
3275, 1.44780000, 0.60960000, 0.05810250
3276, 1.52400000, 0.60960000, 0.05810250
3277, 0.00000000, 0.68580000, 0.05810250
3278, 0.07620000, 0.68580000, 0.05810250
3279, 0.15240000, 0.68580000, 0.05810250
3280, 0.22860000, 0.68580000, 0.05810250
3281, 0.30480000, 0.68580000, 0.05810250
3282, 0.38100000, 0.68580000, 0.05810250
3283, 0.45720000, 0.68580000, 0.05810250
3284, 0.53340000, 0.68580000, 0.05810250
3285, 0.60960000, 0.68580000, 0.05810250
3286, 0.68580000, 0.68580000, 0.05810250
3287, 0.76200000, 0.68580000, 0.05810250
3288, 0.83820000, 0.68580000, 0.05810250
3289, 0.91440000, 0.68580000, 0.05810250
3290, 0.99060000, 0.68580000, 0.05810250
3291, 1.06680000, 0.68580000, 0.05810250
3292, 1.14300000, 0.68580000, 0.05810250
3293, 1.21920000, 0.68580000, 0.05810250
3294, 1.29540000, 0.68580000, 0.05810250
3295, 1.37160000, 0.68580000, 0.05810250
3296, 1.44780000, 0.68580000, 0.05810250
3297, 1.52400000, 0.68580000, 0.05810250
3298, 0.00000000, 0.76200000, 0.05810250
3299, 0.07620000, 0.76200000, 0.05810250
3300, 0.15240000, 0.76200000, 0.05810250
3301, 0.22860000, 0.76200000, 0.05810250
3302, 0.30480000, 0.76200000, 0.05810250
3303, 0.38100000, 0.76200000, 0.05810250
3304, 0.45720000, 0.76200000, 0.05810250
3305, 0.53340000, 0.76200000, 0.05810250
3306, 0.60960000, 0.76200000, 0.05810250
3307, 0.68580000, 0.76200000, 0.05810250
3308, 0.76200000, 0.76200000, 0.05810250
3309, 0.83820000, 0.76200000, 0.05810250
3310, 0.91440000, 0.76200000, 0.05810250
3311, 0.99060000, 0.76200000, 0.05810250
3312, 1.06680000, 0.76200000, 0.05810250
3313, 1.14300000, 0.76200000, 0.05810250
3314, 1.21920000, 0.76200000, 0.05810250
3315, 1.29540000, 0.76200000, 0.05810250
3316, 1.37160000, 0.76200000, 0.05810250
3317, 1.44780000, 0.76200000, 0.05810250
3318, 1.52400000, 0.76200000, 0.05810250
3319, 0.00000000, 0.83820000, 0.05810250
3320, 0.07620000, 0.83820000, 0.05810250
3321, 0.15240000, 0.83820000, 0.05810250
3322, 0.22860000, 0.83820000, 0.05810250
3323, 0.30480000, 0.83820000, 0.05810250
3324, 0.38100000, 0.83820000, 0.05810250
3325, 0.45720000, 0.83820000, 0.05810250
3326, 0.53340000, 0.83820000, 0.05810250
3327, 0.60960000, 0.83820000, 0.05810250
3328, 0.68580000, 0.83820000, 0.05810250
3329, 0.76200000, 0.83820000, 0.05810250
3330, 0.83820000, 0.83820000, 0.05810250
3331, 0.91440000, 0.83820000, 0.05810250
3332, 0.99060000, 0.83820000, 0.05810250
3333, 1.06680000, 0.83820000, 0.05810250
3334, 1.14300000, 0.83820000, 0.05810250
3335, 1.21920000, 0.83820000, 0.05810250
3336, 1.29540000, 0.83820000, 0.05810250
3337, 1.37160000, 0.83820000, 0.05810250
3338, 1.44780000, 0.83820000, 0.05810250
3339, 1.52400000, 0.83820000, 0.05810250
3340, 0.00000000, 0.91440000, 0.05810250
3341, 0.07620000, 0.91440000, 0.05810250
3342, 0.15240000, 0.91440000, 0.05810250
3343, 0.22860000, 0.91440000, 0.05810250
3344, 0.30480000, 0.91440000, 0.05810250
3345, 0.38100000, 0.91440000, 0.05810250
3346, 0.45720000, 0.91440000, 0.05810250
3347, 0.53340000, 0.91440000, 0.05810250
3348, 0.60960000, 0.91440000, 0.05810250
3349, 0.68580000, 0.91440000, 0.05810250
3350, 0.76200000, 0.91440000, 0.05810250
3351, 0.83820000, 0.91440000, 0.05810250
3352, 0.91440000, 0.91440000, 0.05810250
3353, 0.99060000, 0.91440000, 0.05810250
3354, 1.06680000, 0.91440000, 0.05810250
3355, 1.14300000, 0.91440000, 0.05810250
3356, 1.21920000, 0.91440000, 0.05810250
3357, 1.29540000, 0.91440000, 0.05810250
3358, 1.37160000, 0.91440000, 0.05810250
3359, 1.44780000, 0.91440000, 0.05810250
3360, 1.52400000, 0.91440000, 0.05810250
3361, 0.00000000, 0.99060000, 0.05810250
3362, 0.07620000, 0.99060000, 0.05810250
3363, 0.15240000, 0.99060000, 0.05810250
3364, 0.22860000, 0.99060000, 0.05810250
3365, 0.30480000, 0.99060000, 0.05810250
3366, 0.38100000, 0.99060000, 0.05810250
3367, 0.45720000, 0.99060000, 0.05810250
3368, 0.53340000, 0.99060000, 0.05810250
3369, 0.60960000, 0.99060000, 0.05810250
3370, 0.68580000, 0.99060000, 0.05810250
3371, 0.76200000, 0.99060000, 0.05810250
3372, 0.83820000, 0.99060000, 0.05810250
3373, 0.91440000, 0.99060000, 0.05810250
3374, 0.99060000, 0.99060000, 0.05810250
3375, 1.06680000, 0.99060000, 0.05810250
3376, 1.14300000, 0.99060000, 0.05810250
3377, 1.21920000, 0.99060000, 0.05810250
3378, 1.29540000, 0.99060000, 0.05810250
3379, 1.37160000, 0.99060000, 0.05810250
3380, 1.44780000, 0.99060000, 0.05810250
3381, 1.52400000, 0.99060000, 0.05810250
3382, 0.00000000, 1.06680000, 0.05810250
3383, 0.07620000, 1.06680000, 0.05810250
3384, 0.15240000, 1.06680000, 0.05810250
3385, 0.22860000, 1.06680000, 0.05810250
3386, 0.30480000, 1.06680000, 0.05810250
3387, 0.38100000, 1.06680000, 0.05810250
3388, 0.45720000, 1.06680000, 0.05810250
3389, 0.53340000, 1.06680000, 0.05810250
3390, 0.60960000, 1.06680000, 0.05810250
3391, 0.68580000, 1.06680000, 0.05810250
3392, 0.76200000, 1.06680000, 0.05810250
3393, 0.83820000, 1.06680000, 0.05810250
3394, 0.91440000, 1.06680000, 0.05810250
3395, 0.99060000, 1.06680000, 0.05810250
3396, 1.06680000, 1.06680000, 0.05810250
3397, 1.14300000, 1.06680000, 0.05810250
3398, 1.21920000, 1.06680000, 0.05810250
3399, 1.29540000, 1.06680000, 0.05810250
3400, 1.37160000, 1.06680000, 0.05810250
3401, 1.44780000, 1.06680000, 0.05810250
3402, 1.52400000, 1.06680000, 0.05810250
3403, 0.00000000, 1.14300000, 0.05810250
3404, 0.07620000, 1.14300000, 0.05810250
3405, 0.15240000, 1.14300000, 0.05810250
3406, 0.22860000, 1.14300000, 0.05810250
3407, 0.30480000, 1.14300000, 0.05810250
3408, 0.38100000, 1.14300000, 0.05810250
3409, 0.45720000, 1.14300000, 0.05810250
3410, 0.53340000, 1.14300000, 0.05810250
3411, 0.60960000, 1.14300000, 0.05810250
3412, 0.68580000, 1.14300000, 0.05810250
3413, 0.76200000, 1.14300000, 0.05810250
3414, 0.83820000, 1.14300000, 0.05810250
3415, 0.91440000, 1.14300000, 0.05810250
3416, 0.99060000, 1.14300000, 0.05810250
3417, 1.06680000, 1.14300000, 0.05810250
3418, 1.14300000, 1.14300000, 0.05810250
3419, 1.21920000, 1.14300000, 0.05810250
3420, 1.29540000, 1.14300000, 0.05810250
3421, 1.37160000, 1.14300000, 0.05810250
3422, 1.44780000, 1.14300000, 0.05810250
3423, 1.52400000, 1.14300000, 0.05810250
3424, 0.00000000, 1.21920000, 0.05810250
3425, 0.07620000, 1.21920000, 0.05810250
3426, 0.15240000, 1.21920000, 0.05810250
3427, 0.22860000, 1.21920000, 0.05810250
3428, 0.30480000, 1.21920000, 0.05810250
3429, 0.38100000, 1.21920000, 0.05810250
3430, 0.45720000, 1.21920000, 0.05810250
3431, 0.53340000, 1.21920000, 0.05810250
3432, 0.60960000, 1.21920000, 0.05810250
3433, 0.68580000, 1.21920000, 0.05810250
3434, 0.76200000, 1.21920000, 0.05810250
3435, 0.83820000, 1.21920000, 0.05810250
3436, 0.91440000, 1.21920000, 0.05810250
3437, 0.99060000, 1.21920000, 0.05810250
3438, 1.06680000, 1.21920000, 0.05810250
3439, 1.14300000, 1.21920000, 0.05810250
3440, 1.21920000, 1.21920000, 0.05810250
3441, 1.29540000, 1.21920000, 0.05810250
3442, 1.37160000, 1.21920000, 0.05810250
3443, 1.44780000, 1.21920000, 0.05810250
3444, 1.52400000, 1.21920000, 0.05810250
3445, 0.00000000, 1.29540000, 0.05810250
3446, 0.07620000, 1.29540000, 0.05810250
3447, 0.15240000, 1.29540000, 0.05810250
3448, 0.22860000, 1.29540000, 0.05810250
3449, 0.30480000, 1.29540000, 0.05810250
3450, 0.38100000, 1.29540000, 0.05810250
3451, 0.45720000, 1.29540000, 0.05810250
3452, 0.53340000, 1.29540000, 0.05810250
3453, 0.60960000, 1.29540000, 0.05810250
3454, 0.68580000, 1.29540000, 0.05810250
3455, 0.76200000, 1.29540000, 0.05810250
3456, 0.83820000, 1.29540000, 0.05810250
3457, 0.91440000, 1.29540000, 0.05810250
3458, 0.99060000, 1.29540000, 0.05810250
3459, 1.06680000, 1.29540000, 0.05810250
3460, 1.14300000, 1.29540000, 0.05810250
3461, 1.21920000, 1.29540000, 0.05810250
3462, 1.29540000, 1.29540000, 0.05810250
3463, 1.37160000, 1.29540000, 0.05810250
3464, 1.44780000, 1.29540000, 0.05810250
3465, 1.52400000, 1.29540000, 0.05810250
3466, 0.00000000, 1.37160000, 0.05810250
3467, 0.07620000, 1.37160000, 0.05810250
3468, 0.15240000, 1.37160000, 0.05810250
3469, 0.22860000, 1.37160000, 0.05810250
3470, 0.30480000, 1.37160000, 0.05810250
3471, 0.38100000, 1.37160000, 0.05810250
3472, 0.45720000, 1.37160000, 0.05810250
3473, 0.53340000, 1.37160000, 0.05810250
3474, 0.60960000, 1.37160000, 0.05810250
3475, 0.68580000, 1.37160000, 0.05810250
3476, 0.76200000, 1.37160000, 0.05810250
3477, 0.83820000, 1.37160000, 0.05810250
3478, 0.91440000, 1.37160000, 0.05810250
3479, 0.99060000, 1.37160000, 0.05810250
3480, 1.06680000, 1.37160000, 0.05810250
3481, 1.14300000, 1.37160000, 0.05810250
3482, 1.21920000, 1.37160000, 0.05810250
3483, 1.29540000, 1.37160000, 0.05810250
3484, 1.37160000, 1.37160000, 0.05810250
3485, 1.44780000, 1.37160000, 0.05810250
3486, 1.52400000, 1.37160000, 0.05810250
3487, 0.00000000, 1.44780000, 0.05810250
3488, 0.07620000, 1.44780000, 0.05810250
3489, 0.15240000, 1.44780000, 0.05810250
3490, 0.22860000, 1.44780000, 0.05810250
3491, 0.30480000, 1.44780000, 0.05810250
3492, 0.38100000, 1.44780000, 0.05810250
3493, 0.45720000, 1.44780000, 0.05810250
3494, 0.53340000, 1.44780000, 0.05810250
3495, 0.60960000, 1.44780000, 0.05810250
3496, 0.68580000, 1.44780000, 0.05810250
3497, 0.76200000, 1.44780000, 0.05810250
3498, 0.83820000, 1.44780000, 0.05810250
3499, 0.91440000, 1.44780000, 0.05810250
3500, 0.99060000, 1.44780000, 0.05810250
3501, 1.06680000, 1.44780000, 0.05810250
3502, 1.14300000, 1.44780000, 0.05810250
3503, 1.21920000, 1.44780000, 0.05810250
3504, 1.29540000, 1.44780000, 0.05810250
3505, 1.37160000, 1.44780000, 0.05810250
3506, 1.44780000, 1.44780000, 0.05810250
3507, 1.52400000, 1.44780000, 0.05810250
3508, 0.00000000, 1.52400000, 0.05810250
3509, 0.07620000, 1.52400000, 0.05810250
3510, 0.15240000, 1.52400000, 0.05810250
3511, 0.22860000, 1.52400000, 0.05810250
3512, 0.30480000, 1.52400000, 0.05810250
3513, 0.38100000, 1.52400000, 0.05810250
3514, 0.45720000, 1.52400000, 0.05810250
3515, 0.53340000, 1.52400000, 0.05810250
3516, 0.60960000, 1.52400000, 0.05810250
3517, 0.68580000, 1.52400000, 0.05810250
3518, 0.76200000, 1.52400000, 0.05810250
3519, 0.83820000, 1.52400000, 0.05810250
3520, 0.91440000, 1.52400000, 0.05810250
3521, 0.99060000, 1.52400000, 0.05810250
3522, 1.06680000, 1.52400000, 0.05810250
3523, 1.14300000, 1.52400000, 0.05810250
3524, 1.21920000, 1.52400000, 0.05810250
3525, 1.29540000, 1.52400000, 0.05810250
3526, 1.37160000, 1.52400000, 0.05810250
3527, 1.44780000, 1.52400000, 0.05810250
3528, 1.52400000, 1.52400000, 0.05810250
3529, 0.00000000, 0.00000000, 0.07620000
3530, 0.07620000, 0.00000000, 0.07620000
3531, 0.15240000, 0.00000000, 0.07620000
3532, 0.22860000, 0.00000000, 0.07620000
3533, 0.30480000, 0.00000000, 0.07620000
3534, 0.38100000, 0.00000000, 0.07620000
3535, 0.45720000, 0.00000000, 0.07620000
3536, 0.53340000, 0.00000000, 0.07620000
3537, 0.60960000, 0.00000000, 0.07620000
3538, 0.68580000, 0.00000000, 0.07620000
3539, 0.76200000, 0.00000000, 0.07620000
3540, 0.83820000, 0.00000000, 0.07620000
3541, 0.91440000, 0.00000000, 0.07620000
3542, 0.99060000, 0.00000000, 0.07620000
3543, 1.06680000, 0.00000000, 0.07620000
3544, 1.14300000, 0.00000000, 0.07620000
3545, 1.21920000, 0.00000000, 0.07620000
3546, 1.29540000, 0.00000000, 0.07620000
3547, 1.37160000, 0.00000000, 0.07620000
3548, 1.44780000, 0.00000000, 0.07620000
3549, 1.52400000, 0.00000000, 0.07620000
3550, 0.00000000, 0.07620000, 0.07620000
3551, 0.07620000, 0.07620000, 0.07620000
3552, 0.15240000, 0.07620000, 0.07620000
3553, 0.22860000, 0.07620000, 0.07620000
3554, 0.30480000, 0.07620000, 0.07620000
3555, 0.38100000, 0.07620000, 0.07620000
3556, 0.45720000, 0.07620000, 0.07620000
3557, 0.53340000, 0.07620000, 0.07620000
3558, 0.60960000, 0.07620000, 0.07620000
3559, 0.68580000, 0.07620000, 0.07620000
3560, 0.76200000, 0.07620000, 0.07620000
3561, 0.83820000, 0.07620000, 0.07620000
3562, 0.91440000, 0.07620000, 0.07620000
3563, 0.99060000, 0.07620000, 0.07620000
3564, 1.06680000, 0.07620000, 0.07620000
3565, 1.14300000, 0.07620000, 0.07620000
3566, 1.21920000, 0.07620000, 0.07620000
3567, 1.29540000, 0.07620000, 0.07620000
3568, 1.37160000, 0.07620000, 0.07620000
3569, 1.44780000, 0.07620000, 0.07620000
3570, 1.52400000, 0.07620000, 0.07620000
3571, 0.00000000, 0.15240000, 0.07620000
3572, 0.07620000, 0.15240000, 0.07620000
3573, 0.15240000, 0.15240000, 0.07620000
3574, 0.22860000, 0.15240000, 0.07620000
3575, 0.30480000, 0.15240000, 0.07620000
3576, 0.38100000, 0.15240000, 0.07620000
3577, 0.45720000, 0.15240000, 0.07620000
3578, 0.53340000, 0.15240000, 0.07620000
3579, 0.60960000, 0.15240000, 0.07620000
3580, 0.68580000, 0.15240000, 0.07620000
3581, 0.76200000, 0.15240000, 0.07620000
3582, 0.83820000, 0.15240000, 0.07620000
3583, 0.91440000, 0.15240000, 0.07620000
3584, 0.99060000, 0.15240000, 0.07620000
3585, 1.06680000, 0.15240000, 0.07620000
3586, 1.14300000, 0.15240000, 0.07620000
3587, 1.21920000, 0.15240000, 0.07620000
3588, 1.29540000, 0.15240000, 0.07620000
3589, 1.37160000, 0.15240000, 0.07620000
3590, 1.44780000, 0.15240000, 0.07620000
3591, 1.52400000, 0.15240000, 0.07620000
3592, 0.00000000, 0.22860000, 0.07620000
3593, 0.07620000, 0.22860000, 0.07620000
3594, 0.15240000, 0.22860000, 0.07620000
3595, 0.22860000, 0.22860000, 0.07620000
3596, 0.30480000, 0.22860000, 0.07620000
3597, 0.38100000, 0.22860000, 0.07620000
3598, 0.45720000, 0.22860000, 0.07620000
3599, 0.53340000, 0.22860000, 0.07620000
3600, 0.60960000, 0.22860000, 0.07620000
3601, 0.68580000, 0.22860000, 0.07620000
3602, 0.76200000, 0.22860000, 0.07620000
3603, 0.83820000, 0.22860000, 0.07620000
3604, 0.91440000, 0.22860000, 0.07620000
3605, 0.99060000, 0.22860000, 0.07620000
3606, 1.06680000, 0.22860000, 0.07620000
3607, 1.14300000, 0.22860000, 0.07620000
3608, 1.21920000, 0.22860000, 0.07620000
3609, 1.29540000, 0.22860000, 0.07620000
3610, 1.37160000, 0.22860000, 0.07620000
3611, 1.44780000, 0.22860000, 0.07620000
3612, 1.52400000, 0.22860000, 0.07620000
3613, 0.00000000, 0.30480000, 0.07620000
3614, 0.07620000, 0.30480000, 0.07620000
3615, 0.15240000, 0.30480000, 0.07620000
3616, 0.22860000, 0.30480000, 0.07620000
3617, 0.30480000, 0.30480000, 0.07620000
3618, 0.38100000, 0.30480000, 0.07620000
3619, 0.45720000, 0.30480000, 0.07620000
3620, 0.53340000, 0.30480000, 0.07620000
3621, 0.60960000, 0.30480000, 0.07620000
3622, 0.68580000, 0.30480000, 0.07620000
3623, 0.76200000, 0.30480000, 0.07620000
3624, 0.83820000, 0.30480000, 0.07620000
3625, 0.91440000, 0.30480000, 0.07620000
3626, 0.99060000, 0.30480000, 0.07620000
3627, 1.06680000, 0.30480000, 0.07620000
3628, 1.14300000, 0.30480000, 0.07620000
3629, 1.21920000, 0.30480000, 0.07620000
3630, 1.29540000, 0.30480000, 0.07620000
3631, 1.37160000, 0.30480000, 0.07620000
3632, 1.44780000, 0.30480000, 0.07620000
3633, 1.52400000, 0.30480000, 0.07620000
3634, 0.00000000, 0.38100000, 0.07620000
3635, 0.07620000, 0.38100000, 0.07620000
3636, 0.15240000, 0.38100000, 0.07620000
3637, 0.22860000, 0.38100000, 0.07620000
3638, 0.30480000, 0.38100000, 0.07620000
3639, 0.38100000, 0.38100000, 0.07620000
3640, 0.45720000, 0.38100000, 0.07620000
3641, 0.53340000, 0.38100000, 0.07620000
3642, 0.60960000, 0.38100000, 0.07620000
3643, 0.68580000, 0.38100000, 0.07620000
3644, 0.76200000, 0.38100000, 0.07620000
3645, 0.83820000, 0.38100000, 0.07620000
3646, 0.91440000, 0.38100000, 0.07620000
3647, 0.99060000, 0.38100000, 0.07620000
3648, 1.06680000, 0.38100000, 0.07620000
3649, 1.14300000, 0.38100000, 0.07620000
3650, 1.21920000, 0.38100000, 0.07620000
3651, 1.29540000, 0.38100000, 0.07620000
3652, 1.37160000, 0.38100000, 0.07620000
3653, 1.44780000, 0.38100000, 0.07620000
3654, 1.52400000, 0.38100000, 0.07620000
3655, 0.00000000, 0.45720000, 0.07620000
3656, 0.07620000, 0.45720000, 0.07620000
3657, 0.15240000, 0.45720000, 0.07620000
3658, 0.22860000, 0.45720000, 0.07620000
3659, 0.30480000, 0.45720000, 0.07620000
3660, 0.38100000, 0.45720000, 0.07620000
3661, 0.45720000, 0.45720000, 0.07620000
3662, 0.53340000, 0.45720000, 0.07620000
3663, 0.60960000, 0.45720000, 0.07620000
3664, 0.68580000, 0.45720000, 0.07620000
3665, 0.76200000, 0.45720000, 0.07620000
3666, 0.83820000, 0.45720000, 0.07620000
3667, 0.91440000, 0.45720000, 0.07620000
3668, 0.99060000, 0.45720000, 0.07620000
3669, 1.06680000, 0.45720000, 0.07620000
3670, 1.14300000, 0.45720000, 0.07620000
3671, 1.21920000, 0.45720000, 0.07620000
3672, 1.29540000, 0.45720000, 0.07620000
3673, 1.37160000, 0.45720000, 0.07620000
3674, 1.44780000, 0.45720000, 0.07620000
3675, 1.52400000, 0.45720000, 0.07620000
3676, 0.00000000, 0.53340000, 0.07620000
3677, 0.07620000, 0.53340000, 0.07620000
3678, 0.15240000, 0.53340000, 0.07620000
3679, 0.22860000, 0.53340000, 0.07620000
3680, 0.30480000, 0.53340000, 0.07620000
3681, 0.38100000, 0.53340000, 0.07620000
3682, 0.45720000, 0.53340000, 0.07620000
3683, 0.53340000, 0.53340000, 0.07620000
3684, 0.60960000, 0.53340000, 0.07620000
3685, 0.68580000, 0.53340000, 0.07620000
3686, 0.76200000, 0.53340000, 0.07620000
3687, 0.83820000, 0.53340000, 0.07620000
3688, 0.91440000, 0.53340000, 0.07620000
3689, 0.99060000, 0.53340000, 0.07620000
3690, 1.06680000, 0.53340000, 0.07620000
3691, 1.14300000, 0.53340000, 0.07620000
3692, 1.21920000, 0.53340000, 0.07620000
3693, 1.29540000, 0.53340000, 0.07620000
3694, 1.37160000, 0.53340000, 0.07620000
3695, 1.44780000, 0.53340000, 0.07620000
3696, 1.52400000, 0.53340000, 0.07620000
3697, 0.00000000, 0.60960000, 0.07620000
3698, 0.07620000, 0.60960000, 0.07620000
3699, 0.15240000, 0.60960000, 0.07620000
3700, 0.22860000, 0.60960000, 0.07620000
3701, 0.30480000, 0.60960000, 0.07620000
3702, 0.38100000, 0.60960000, 0.07620000
3703, 0.45720000, 0.60960000, 0.07620000
3704, 0.53340000, 0.60960000, 0.07620000
3705, 0.60960000, 0.60960000, 0.07620000
3706, 0.68580000, 0.60960000, 0.07620000
3707, 0.76200000, 0.60960000, 0.07620000
3708, 0.83820000, 0.60960000, 0.07620000
3709, 0.91440000, 0.60960000, 0.07620000
3710, 0.99060000, 0.60960000, 0.07620000
3711, 1.06680000, 0.60960000, 0.07620000
3712, 1.14300000, 0.60960000, 0.07620000
3713, 1.21920000, 0.60960000, 0.07620000
3714, 1.29540000, 0.60960000, 0.07620000
3715, 1.37160000, 0.60960000, 0.07620000
3716, 1.44780000, 0.60960000, 0.07620000
3717, 1.52400000, 0.60960000, 0.07620000
3718, 0.00000000, 0.68580000, 0.07620000
3719, 0.07620000, 0.68580000, 0.07620000
3720, 0.15240000, 0.68580000, 0.07620000
3721, 0.22860000, 0.68580000, 0.07620000
3722, 0.30480000, 0.68580000, 0.07620000
3723, 0.38100000, 0.68580000, 0.07620000
3724, 0.45720000, 0.68580000, 0.07620000
3725, 0.53340000, 0.68580000, 0.07620000
3726, 0.60960000, 0.68580000, 0.07620000
3727, 0.68580000, 0.68580000, 0.07620000
3728, 0.76200000, 0.68580000, 0.07620000
3729, 0.83820000, 0.68580000, 0.07620000
3730, 0.91440000, 0.68580000, 0.07620000
3731, 0.99060000, 0.68580000, 0.07620000
3732, 1.06680000, 0.68580000, 0.07620000
3733, 1.14300000, 0.68580000, 0.07620000
3734, 1.21920000, 0.68580000, 0.07620000
3735, 1.29540000, 0.68580000, 0.07620000
3736, 1.37160000, 0.68580000, 0.07620000
3737, 1.44780000, 0.68580000, 0.07620000
3738, 1.52400000, 0.68580000, 0.07620000
3739, 0.00000000, 0.76200000, 0.07620000
3740, 0.07620000, 0.76200000, 0.07620000
3741, 0.15240000, 0.76200000, 0.07620000
3742, 0.22860000, 0.76200000, 0.07620000
3743, 0.30480000, 0.76200000, 0.07620000
3744, 0.38100000, 0.76200000, 0.07620000
3745, 0.45720000, 0.76200000, 0.07620000
3746, 0.53340000, 0.76200000, 0.07620000
3747, 0.60960000, 0.76200000, 0.07620000
3748, 0.68580000, 0.76200000, 0.07620000
3749, 0.76200000, 0.76200000, 0.07620000
3750, 0.83820000, 0.76200000, 0.07620000
3751, 0.91440000, 0.76200000, 0.07620000
3752, 0.99060000, 0.76200000, 0.07620000
3753, 1.06680000, 0.76200000, 0.07620000
3754, 1.14300000, 0.76200000, 0.07620000
3755, 1.21920000, 0.76200000, 0.07620000
3756, 1.29540000, 0.76200000, 0.07620000
3757, 1.37160000, 0.76200000, 0.07620000
3758, 1.44780000, 0.76200000, 0.07620000
3759, 1.52400000, 0.76200000, 0.07620000
3760, 0.00000000, 0.83820000, 0.07620000
3761, 0.07620000, 0.83820000, 0.07620000
3762, 0.15240000, 0.83820000, 0.07620000
3763, 0.22860000, 0.83820000, 0.07620000
3764, 0.30480000, 0.83820000, 0.07620000
3765, 0.38100000, 0.83820000, 0.07620000
3766, 0.45720000, 0.83820000, 0.07620000
3767, 0.53340000, 0.83820000, 0.07620000
3768, 0.60960000, 0.83820000, 0.07620000
3769, 0.68580000, 0.83820000, 0.07620000
3770, 0.76200000, 0.83820000, 0.07620000
3771, 0.83820000, 0.83820000, 0.07620000
3772, 0.91440000, 0.83820000, 0.07620000
3773, 0.99060000, 0.83820000, 0.07620000
3774, 1.06680000, 0.83820000, 0.07620000
3775, 1.14300000, 0.83820000, 0.07620000
3776, 1.21920000, 0.83820000, 0.07620000
3777, 1.29540000, 0.83820000, 0.07620000
3778, 1.37160000, 0.83820000, 0.07620000
3779, 1.44780000, 0.83820000, 0.07620000
3780, 1.52400000, 0.83820000, 0.07620000
3781, 0.00000000, 0.91440000, 0.07620000
3782, 0.07620000, 0.91440000, 0.07620000
3783, 0.15240000, 0.91440000, 0.07620000
3784, 0.22860000, 0.91440000, 0.07620000
3785, 0.30480000, 0.91440000, 0.07620000
3786, 0.38100000, 0.91440000, 0.07620000
3787, 0.45720000, 0.91440000, 0.07620000
3788, 0.53340000, 0.91440000, 0.07620000
3789, 0.60960000, 0.91440000, 0.07620000
3790, 0.68580000, 0.91440000, 0.07620000
3791, 0.76200000, 0.91440000, 0.07620000
3792, 0.83820000, 0.91440000, 0.07620000
3793, 0.91440000, 0.91440000, 0.07620000
3794, 0.99060000, 0.91440000, 0.07620000
3795, 1.06680000, 0.91440000, 0.07620000
3796, 1.14300000, 0.91440000, 0.07620000
3797, 1.21920000, 0.91440000, 0.07620000
3798, 1.29540000, 0.91440000, 0.07620000
3799, 1.37160000, 0.91440000, 0.07620000
3800, 1.44780000, 0.91440000, 0.07620000
3801, 1.52400000, 0.91440000, 0.07620000
3802, 0.00000000, 0.99060000, 0.07620000
3803, 0.07620000, 0.99060000, 0.07620000
3804, 0.15240000, 0.99060000, 0.07620000
3805, 0.22860000, 0.99060000, 0.07620000
3806, 0.30480000, 0.99060000, 0.07620000
3807, 0.38100000, 0.99060000, 0.07620000
3808, 0.45720000, 0.99060000, 0.07620000
3809, 0.53340000, 0.99060000, 0.07620000
3810, 0.60960000, 0.99060000, 0.07620000
3811, 0.68580000, 0.99060000, 0.07620000
3812, 0.76200000, 0.99060000, 0.07620000
3813, 0.83820000, 0.99060000, 0.07620000
3814, 0.91440000, 0.99060000, 0.07620000
3815, 0.99060000, 0.99060000, 0.07620000
3816, 1.06680000, 0.99060000, 0.07620000
3817, 1.14300000, 0.99060000, 0.07620000
3818, 1.21920000, 0.99060000, 0.07620000
3819, 1.29540000, 0.99060000, 0.07620000
3820, 1.37160000, 0.99060000, 0.07620000
3821, 1.44780000, 0.99060000, 0.07620000
3822, 1.52400000, 0.99060000, 0.07620000
3823, 0.00000000, 1.06680000, 0.07620000
3824, 0.07620000, 1.06680000, 0.07620000
3825, 0.15240000, 1.06680000, 0.07620000
3826, 0.22860000, 1.06680000, 0.07620000
3827, 0.30480000, 1.06680000, 0.07620000
3828, 0.38100000, 1.06680000, 0.07620000
3829, 0.45720000, 1.06680000, 0.07620000
3830, 0.53340000, 1.06680000, 0.07620000
3831, 0.60960000, 1.06680000, 0.07620000
3832, 0.68580000, 1.06680000, 0.07620000
3833, 0.76200000, 1.06680000, 0.07620000
3834, 0.83820000, 1.06680000, 0.07620000
3835, 0.91440000, 1.06680000, 0.07620000
3836, 0.99060000, 1.06680000, 0.07620000
3837, 1.06680000, 1.06680000, 0.07620000
3838, 1.14300000, 1.06680000, 0.07620000
3839, 1.21920000, 1.06680000, 0.07620000
3840, 1.29540000, 1.06680000, 0.07620000
3841, 1.37160000, 1.06680000, 0.07620000
3842, 1.44780000, 1.06680000, 0.07620000
3843, 1.52400000, 1.06680000, 0.07620000
3844, 0.00000000, 1.14300000, 0.07620000
3845, 0.07620000, 1.14300000, 0.07620000
3846, 0.15240000, 1.14300000, 0.07620000
3847, 0.22860000, 1.14300000, 0.07620000
3848, 0.30480000, 1.14300000, 0.07620000
3849, 0.38100000, 1.14300000, 0.07620000
3850, 0.45720000, 1.14300000, 0.07620000
3851, 0.53340000, 1.14300000, 0.07620000
3852, 0.60960000, 1.14300000, 0.07620000
3853, 0.68580000, 1.14300000, 0.07620000
3854, 0.76200000, 1.14300000, 0.07620000
3855, 0.83820000, 1.14300000, 0.07620000
3856, 0.91440000, 1.14300000, 0.07620000
3857, 0.99060000, 1.14300000, 0.07620000
3858, 1.06680000, 1.14300000, 0.07620000
3859, 1.14300000, 1.14300000, 0.07620000
3860, 1.21920000, 1.14300000, 0.07620000
3861, 1.29540000, 1.14300000, 0.07620000
3862, 1.37160000, 1.14300000, 0.07620000
3863, 1.44780000, 1.14300000, 0.07620000
3864, 1.52400000, 1.14300000, 0.07620000
3865, 0.00000000, 1.21920000, 0.07620000
3866, 0.07620000, 1.21920000, 0.07620000
3867, 0.15240000, 1.21920000, 0.07620000
3868, 0.22860000, 1.21920000, 0.07620000
3869, 0.30480000, 1.21920000, 0.07620000
3870, 0.38100000, 1.21920000, 0.07620000
3871, 0.45720000, 1.21920000, 0.07620000
3872, 0.53340000, 1.21920000, 0.07620000
3873, 0.60960000, 1.21920000, 0.07620000
3874, 0.68580000, 1.21920000, 0.07620000
3875, 0.76200000, 1.21920000, 0.07620000
3876, 0.83820000, 1.21920000, 0.07620000
3877, 0.91440000, 1.21920000, 0.07620000
3878, 0.99060000, 1.21920000, 0.07620000
3879, 1.06680000, 1.21920000, 0.07620000
3880, 1.14300000, 1.21920000, 0.07620000
3881, 1.21920000, 1.21920000, 0.07620000
3882, 1.29540000, 1.21920000, 0.07620000
3883, 1.37160000, 1.21920000, 0.07620000
3884, 1.44780000, 1.21920000, 0.07620000
3885, 1.52400000, 1.21920000, 0.07620000
3886, 0.00000000, 1.29540000, 0.07620000
3887, 0.07620000, 1.29540000, 0.07620000
3888, 0.15240000, 1.29540000, 0.07620000
3889, 0.22860000, 1.29540000, 0.07620000
3890, 0.30480000, 1.29540000, 0.07620000
3891, 0.38100000, 1.29540000, 0.07620000
3892, 0.45720000, 1.29540000, 0.07620000
3893, 0.53340000, 1.29540000, 0.07620000
3894, 0.60960000, 1.29540000, 0.07620000
3895, 0.68580000, 1.29540000, 0.07620000
3896, 0.76200000, 1.29540000, 0.07620000
3897, 0.83820000, 1.29540000, 0.07620000
3898, 0.91440000, 1.29540000, 0.07620000
3899, 0.99060000, 1.29540000, 0.07620000
3900, 1.06680000, 1.29540000, 0.07620000
3901, 1.14300000, 1.29540000, 0.07620000
3902, 1.21920000, 1.29540000, 0.07620000
3903, 1.29540000, 1.29540000, 0.07620000
3904, 1.37160000, 1.29540000, 0.07620000
3905, 1.44780000, 1.29540000, 0.07620000
3906, 1.52400000, 1.29540000, 0.07620000
3907, 0.00000000, 1.37160000, 0.07620000
3908, 0.07620000, 1.37160000, 0.07620000
3909, 0.15240000, 1.37160000, 0.07620000
3910, 0.22860000, 1.37160000, 0.07620000
3911, 0.30480000, 1.37160000, 0.07620000
3912, 0.38100000, 1.37160000, 0.07620000
3913, 0.45720000, 1.37160000, 0.07620000
3914, 0.53340000, 1.37160000, 0.07620000
3915, 0.60960000, 1.37160000, 0.07620000
3916, 0.68580000, 1.37160000, 0.07620000
3917, 0.76200000, 1.37160000, 0.07620000
3918, 0.83820000, 1.37160000, 0.07620000
3919, 0.91440000, 1.37160000, 0.07620000
3920, 0.99060000, 1.37160000, 0.07620000
3921, 1.06680000, 1.37160000, 0.07620000
3922, 1.14300000, 1.37160000, 0.07620000
3923, 1.21920000, 1.37160000, 0.07620000
3924, 1.29540000, 1.37160000, 0.07620000
3925, 1.37160000, 1.37160000, 0.07620000
3926, 1.44780000, 1.37160000, 0.07620000
3927, 1.52400000, 1.37160000, 0.07620000
3928, 0.00000000, 1.44780000, 0.07620000
3929, 0.07620000, 1.44780000, 0.07620000
3930, 0.15240000, 1.44780000, 0.07620000
3931, 0.22860000, 1.44780000, 0.07620000
3932, 0.30480000, 1.44780000, 0.07620000
3933, 0.38100000, 1.44780000, 0.07620000
3934, 0.45720000, 1.44780000, 0.07620000
3935, 0.53340000, 1.44780000, 0.07620000
3936, 0.60960000, 1.44780000, 0.07620000
3937, 0.68580000, 1.44780000, 0.07620000
3938, 0.76200000, 1.44780000, 0.07620000
3939, 0.83820000, 1.44780000, 0.07620000
3940, 0.91440000, 1.44780000, 0.07620000
3941, 0.99060000, 1.44780000, 0.07620000
3942, 1.06680000, 1.44780000, 0.07620000
3943, 1.14300000, 1.44780000, 0.07620000
3944, 1.21920000, 1.44780000, 0.07620000
3945, 1.29540000, 1.44780000, 0.07620000
3946, 1.37160000, 1.44780000, 0.07620000
3947, 1.44780000, 1.44780000, 0.07620000
3948, 1.52400000, 1.44780000, 0.07620000
3949, 0.00000000, 1.52400000, 0.07620000
3950, 0.07620000, 1.52400000, 0.07620000
3951, 0.15240000, 1.52400000, 0.07620000
3952, 0.22860000, 1.52400000, 0.07620000
3953, 0.30480000, 1.52400000, 0.07620000
3954, 0.38100000, 1.52400000, 0.07620000
3955, 0.45720000, 1.52400000, 0.07620000
3956, 0.53340000, 1.52400000, 0.07620000
3957, 0.60960000, 1.52400000, 0.07620000
3958, 0.68580000, 1.52400000, 0.07620000
3959, 0.76200000, 1.52400000, 0.07620000
3960, 0.83820000, 1.52400000, 0.07620000
3961, 0.91440000, 1.52400000, 0.07620000
3962, 0.99060000, 1.52400000, 0.07620000
3963, 1.06680000, 1.52400000, 0.07620000
3964, 1.14300000, 1.52400000, 0.07620000
3965, 1.21920000, 1.52400000, 0.07620000
3966, 1.29540000, 1.52400000, 0.07620000
3967, 1.37160000, 1.52400000, 0.07620000
3968, 1.44780000, 1.52400000, 0.07620000
3969, 1.52400000, 1.52400000, 0.07620000
3970, 0.00000000, 0.00000000, 0.09429750
3971, 0.07620000, 0.00000000, 0.09429750
3972, 0.15240000, 0.00000000, 0.09429750
3973, 0.22860000, 0.00000000, 0.09429750
3974, 0.30480000, 0.00000000, 0.09429750
3975, 0.38100000, 0.00000000, 0.09429750
3976, 0.45720000, 0.00000000, 0.09429750
3977, 0.53340000, 0.00000000, 0.09429750
3978, 0.60960000, 0.00000000, 0.09429750
3979, 0.68580000, 0.00000000, 0.09429750
3980, 0.76200000, 0.00000000, 0.09429750
3981, 0.83820000, 0.00000000, 0.09429750
3982, 0.91440000, 0.00000000, 0.09429750
3983, 0.99060000, 0.00000000, 0.09429750
3984, 1.06680000, 0.00000000, 0.09429750
3985, 1.14300000, 0.00000000, 0.09429750
3986, 1.21920000, 0.00000000, 0.09429750
3987, 1.29540000, 0.00000000, 0.09429750
3988, 1.37160000, 0.00000000, 0.09429750
3989, 1.44780000, 0.00000000, 0.09429750
3990, 1.52400000, 0.00000000, 0.09429750
3991, 0.00000000, 0.07620000, 0.09429750
3992, 0.07620000, 0.07620000, 0.09429750
3993, 0.15240000, 0.07620000, 0.09429750
3994, 0.22860000, 0.07620000, 0.09429750
3995, 0.30480000, 0.07620000, 0.09429750
3996, 0.38100000, 0.07620000, 0.09429750
3997, 0.45720000, 0.07620000, 0.09429750
3998, 0.53340000, 0.07620000, 0.09429750
3999, 0.60960000, 0.07620000, 0.09429750
4000, 0.68580000, 0.07620000, 0.09429750
4001, 0.76200000, 0.07620000, 0.09429750
4002, 0.83820000, 0.07620000, 0.09429750
4003, 0.91440000, 0.07620000, 0.09429750
4004, 0.99060000, 0.07620000, 0.09429750
4005, 1.06680000, 0.07620000, 0.09429750
4006, 1.14300000, 0.07620000, 0.09429750
4007, 1.21920000, 0.07620000, 0.09429750
4008, 1.29540000, 0.07620000, 0.09429750
4009, 1.37160000, 0.07620000, 0.09429750
4010, 1.44780000, 0.07620000, 0.09429750
4011, 1.52400000, 0.07620000, 0.09429750
4012, 0.00000000, 0.15240000, 0.09429750
4013, 0.07620000, 0.15240000, 0.09429750
4014, 0.15240000, 0.15240000, 0.09429750
4015, 0.22860000, 0.15240000, 0.09429750
4016, 0.30480000, 0.15240000, 0.09429750
4017, 0.38100000, 0.15240000, 0.09429750
4018, 0.45720000, 0.15240000, 0.09429750
4019, 0.53340000, 0.15240000, 0.09429750
4020, 0.60960000, 0.15240000, 0.09429750
4021, 0.68580000, 0.15240000, 0.09429750
4022, 0.76200000, 0.15240000, 0.09429750
4023, 0.83820000, 0.15240000, 0.09429750
4024, 0.91440000, 0.15240000, 0.09429750
4025, 0.99060000, 0.15240000, 0.09429750
4026, 1.06680000, 0.15240000, 0.09429750
4027, 1.14300000, 0.15240000, 0.09429750
4028, 1.21920000, 0.15240000, 0.09429750
4029, 1.29540000, 0.15240000, 0.09429750
4030, 1.37160000, 0.15240000, 0.09429750
4031, 1.44780000, 0.15240000, 0.09429750
4032, 1.52400000, 0.15240000, 0.09429750
4033, 0.00000000, 0.22860000, 0.09429750
4034, 0.07620000, 0.22860000, 0.09429750
4035, 0.15240000, 0.22860000, 0.09429750
4036, 0.22860000, 0.22860000, 0.09429750
4037, 0.30480000, 0.22860000, 0.09429750
4038, 0.38100000, 0.22860000, 0.09429750
4039, 0.45720000, 0.22860000, 0.09429750
4040, 0.53340000, 0.22860000, 0.09429750
4041, 0.60960000, 0.22860000, 0.09429750
4042, 0.68580000, 0.22860000, 0.09429750
4043, 0.76200000, 0.22860000, 0.09429750
4044, 0.83820000, 0.22860000, 0.09429750
4045, 0.91440000, 0.22860000, 0.09429750
4046, 0.99060000, 0.22860000, 0.09429750
4047, 1.06680000, 0.22860000, 0.09429750
4048, 1.14300000, 0.22860000, 0.09429750
4049, 1.21920000, 0.22860000, 0.09429750
4050, 1.29540000, 0.22860000, 0.09429750
4051, 1.37160000, 0.22860000, 0.09429750
4052, 1.44780000, 0.22860000, 0.09429750
4053, 1.52400000, 0.22860000, 0.09429750
4054, 0.00000000, 0.30480000, 0.09429750
4055, 0.07620000, 0.30480000, 0.09429750
4056, 0.15240000, 0.30480000, 0.09429750
4057, 0.22860000, 0.30480000, 0.09429750
4058, 0.30480000, 0.30480000, 0.09429750
4059, 0.38100000, 0.30480000, 0.09429750
4060, 0.45720000, 0.30480000, 0.09429750
4061, 0.53340000, 0.30480000, 0.09429750
4062, 0.60960000, 0.30480000, 0.09429750
4063, 0.68580000, 0.30480000, 0.09429750
4064, 0.76200000, 0.30480000, 0.09429750
4065, 0.83820000, 0.30480000, 0.09429750
4066, 0.91440000, 0.30480000, 0.09429750
4067, 0.99060000, 0.30480000, 0.09429750
4068, 1.06680000, 0.30480000, 0.09429750
4069, 1.14300000, 0.30480000, 0.09429750
4070, 1.21920000, 0.30480000, 0.09429750
4071, 1.29540000, 0.30480000, 0.09429750
4072, 1.37160000, 0.30480000, 0.09429750
4073, 1.44780000, 0.30480000, 0.09429750
4074, 1.52400000, 0.30480000, 0.09429750
4075, 0.00000000, 0.38100000, 0.09429750
4076, 0.07620000, 0.38100000, 0.09429750
4077, 0.15240000, 0.38100000, 0.09429750
4078, 0.22860000, 0.38100000, 0.09429750
4079, 0.30480000, 0.38100000, 0.09429750
4080, 0.38100000, 0.38100000, 0.09429750
4081, 0.45720000, 0.38100000, 0.09429750
4082, 0.53340000, 0.38100000, 0.09429750
4083, 0.60960000, 0.38100000, 0.09429750
4084, 0.68580000, 0.38100000, 0.09429750
4085, 0.76200000, 0.38100000, 0.09429750
4086, 0.83820000, 0.38100000, 0.09429750
4087, 0.91440000, 0.38100000, 0.09429750
4088, 0.99060000, 0.38100000, 0.09429750
4089, 1.06680000, 0.38100000, 0.09429750
4090, 1.14300000, 0.38100000, 0.09429750
4091, 1.21920000, 0.38100000, 0.09429750
4092, 1.29540000, 0.38100000, 0.09429750
4093, 1.37160000, 0.38100000, 0.09429750
4094, 1.44780000, 0.38100000, 0.09429750
4095, 1.52400000, 0.38100000, 0.09429750
4096, 0.00000000, 0.45720000, 0.09429750
4097, 0.07620000, 0.45720000, 0.09429750
4098, 0.15240000, 0.45720000, 0.09429750
4099, 0.22860000, 0.45720000, 0.09429750
4100, 0.30480000, 0.45720000, 0.09429750
4101, 0.38100000, 0.45720000, 0.09429750
4102, 0.45720000, 0.45720000, 0.09429750
4103, 0.53340000, 0.45720000, 0.09429750
4104, 0.60960000, 0.45720000, 0.09429750
4105, 0.68580000, 0.45720000, 0.09429750
4106, 0.76200000, 0.45720000, 0.09429750
4107, 0.83820000, 0.45720000, 0.09429750
4108, 0.91440000, 0.45720000, 0.09429750
4109, 0.99060000, 0.45720000, 0.09429750
4110, 1.06680000, 0.45720000, 0.09429750
4111, 1.14300000, 0.45720000, 0.09429750
4112, 1.21920000, 0.45720000, 0.09429750
4113, 1.29540000, 0.45720000, 0.09429750
4114, 1.37160000, 0.45720000, 0.09429750
4115, 1.44780000, 0.45720000, 0.09429750
4116, 1.52400000, 0.45720000, 0.09429750
4117, 0.00000000, 0.53340000, 0.09429750
4118, 0.07620000, 0.53340000, 0.09429750
4119, 0.15240000, 0.53340000, 0.09429750
4120, 0.22860000, 0.53340000, 0.09429750
4121, 0.30480000, 0.53340000, 0.09429750
4122, 0.38100000, 0.53340000, 0.09429750
4123, 0.45720000, 0.53340000, 0.09429750
4124, 0.53340000, 0.53340000, 0.09429750
4125, 0.60960000, 0.53340000, 0.09429750
4126, 0.68580000, 0.53340000, 0.09429750
4127, 0.76200000, 0.53340000, 0.09429750
4128, 0.83820000, 0.53340000, 0.09429750
4129, 0.91440000, 0.53340000, 0.09429750
4130, 0.99060000, 0.53340000, 0.09429750
4131, 1.06680000, 0.53340000, 0.09429750
4132, 1.14300000, 0.53340000, 0.09429750
4133, 1.21920000, 0.53340000, 0.09429750
4134, 1.29540000, 0.53340000, 0.09429750
4135, 1.37160000, 0.53340000, 0.09429750
4136, 1.44780000, 0.53340000, 0.09429750
4137, 1.52400000, 0.53340000, 0.09429750
4138, 0.00000000, 0.60960000, 0.09429750
4139, 0.07620000, 0.60960000, 0.09429750
4140, 0.15240000, 0.60960000, 0.09429750
4141, 0.22860000, 0.60960000, 0.09429750
4142, 0.30480000, 0.60960000, 0.09429750
4143, 0.38100000, 0.60960000, 0.09429750
4144, 0.45720000, 0.60960000, 0.09429750
4145, 0.53340000, 0.60960000, 0.09429750
4146, 0.60960000, 0.60960000, 0.09429750
4147, 0.68580000, 0.60960000, 0.09429750
4148, 0.76200000, 0.60960000, 0.09429750
4149, 0.83820000, 0.60960000, 0.09429750
4150, 0.91440000, 0.60960000, 0.09429750
4151, 0.99060000, 0.60960000, 0.09429750
4152, 1.06680000, 0.60960000, 0.09429750
4153, 1.14300000, 0.60960000, 0.09429750
4154, 1.21920000, 0.60960000, 0.09429750
4155, 1.29540000, 0.60960000, 0.09429750
4156, 1.37160000, 0.60960000, 0.09429750
4157, 1.44780000, 0.60960000, 0.09429750
4158, 1.52400000, 0.60960000, 0.09429750
4159, 0.00000000, 0.68580000, 0.09429750
4160, 0.07620000, 0.68580000, 0.09429750
4161, 0.15240000, 0.68580000, 0.09429750
4162, 0.22860000, 0.68580000, 0.09429750
4163, 0.30480000, 0.68580000, 0.09429750
4164, 0.38100000, 0.68580000, 0.09429750
4165, 0.45720000, 0.68580000, 0.09429750
4166, 0.53340000, 0.68580000, 0.09429750
4167, 0.60960000, 0.68580000, 0.09429750
4168, 0.68580000, 0.68580000, 0.09429750
4169, 0.76200000, 0.68580000, 0.09429750
4170, 0.83820000, 0.68580000, 0.09429750
4171, 0.91440000, 0.68580000, 0.09429750
4172, 0.99060000, 0.68580000, 0.09429750
4173, 1.06680000, 0.68580000, 0.09429750
4174, 1.14300000, 0.68580000, 0.09429750
4175, 1.21920000, 0.68580000, 0.09429750
4176, 1.29540000, 0.68580000, 0.09429750
4177, 1.37160000, 0.68580000, 0.09429750
4178, 1.44780000, 0.68580000, 0.09429750
4179, 1.52400000, 0.68580000, 0.09429750
4180, 0.00000000, 0.76200000, 0.09429750
4181, 0.07620000, 0.76200000, 0.09429750
4182, 0.15240000, 0.76200000, 0.09429750
4183, 0.22860000, 0.76200000, 0.09429750
4184, 0.30480000, 0.76200000, 0.09429750
4185, 0.38100000, 0.76200000, 0.09429750
4186, 0.45720000, 0.76200000, 0.09429750
4187, 0.53340000, 0.76200000, 0.09429750
4188, 0.60960000, 0.76200000, 0.09429750
4189, 0.68580000, 0.76200000, 0.09429750
4190, 0.76200000, 0.76200000, 0.09429750
4191, 0.83820000, 0.76200000, 0.09429750
4192, 0.91440000, 0.76200000, 0.09429750
4193, 0.99060000, 0.76200000, 0.09429750
4194, 1.06680000, 0.76200000, 0.09429750
4195, 1.14300000, 0.76200000, 0.09429750
4196, 1.21920000, 0.76200000, 0.09429750
4197, 1.29540000, 0.76200000, 0.09429750
4198, 1.37160000, 0.76200000, 0.09429750
4199, 1.44780000, 0.76200000, 0.09429750
4200, 1.52400000, 0.76200000, 0.09429750
4201, 0.00000000, 0.83820000, 0.09429750
4202, 0.07620000, 0.83820000, 0.09429750
4203, 0.15240000, 0.83820000, 0.09429750
4204, 0.22860000, 0.83820000, 0.09429750
4205, 0.30480000, 0.83820000, 0.09429750
4206, 0.38100000, 0.83820000, 0.09429750
4207, 0.45720000, 0.83820000, 0.09429750
4208, 0.53340000, 0.83820000, 0.09429750
4209, 0.60960000, 0.83820000, 0.09429750
4210, 0.68580000, 0.83820000, 0.09429750
4211, 0.76200000, 0.83820000, 0.09429750
4212, 0.83820000, 0.83820000, 0.09429750
4213, 0.91440000, 0.83820000, 0.09429750
4214, 0.99060000, 0.83820000, 0.09429750
4215, 1.06680000, 0.83820000, 0.09429750
4216, 1.14300000, 0.83820000, 0.09429750
4217, 1.21920000, 0.83820000, 0.09429750
4218, 1.29540000, 0.83820000, 0.09429750
4219, 1.37160000, 0.83820000, 0.09429750
4220, 1.44780000, 0.83820000, 0.09429750
4221, 1.52400000, 0.83820000, 0.09429750
4222, 0.00000000, 0.91440000, 0.09429750
4223, 0.07620000, 0.91440000, 0.09429750
4224, 0.15240000, 0.91440000, 0.09429750
4225, 0.22860000, 0.91440000, 0.09429750
4226, 0.30480000, 0.91440000, 0.09429750
4227, 0.38100000, 0.91440000, 0.09429750
4228, 0.45720000, 0.91440000, 0.09429750
4229, 0.53340000, 0.91440000, 0.09429750
4230, 0.60960000, 0.91440000, 0.09429750
4231, 0.68580000, 0.91440000, 0.09429750
4232, 0.76200000, 0.91440000, 0.09429750
4233, 0.83820000, 0.91440000, 0.09429750
4234, 0.91440000, 0.91440000, 0.09429750
4235, 0.99060000, 0.91440000, 0.09429750
4236, 1.06680000, 0.91440000, 0.09429750
4237, 1.14300000, 0.91440000, 0.09429750
4238, 1.21920000, 0.91440000, 0.09429750
4239, 1.29540000, 0.91440000, 0.09429750
4240, 1.37160000, 0.91440000, 0.09429750
4241, 1.44780000, 0.91440000, 0.09429750
4242, 1.52400000, 0.91440000, 0.09429750
4243, 0.00000000, 0.99060000, 0.09429750
4244, 0.07620000, 0.99060000, 0.09429750
4245, 0.15240000, 0.99060000, 0.09429750
4246, 0.22860000, 0.99060000, 0.09429750
4247, 0.30480000, 0.99060000, 0.09429750
4248, 0.38100000, 0.99060000, 0.09429750
4249, 0.45720000, 0.99060000, 0.09429750
4250, 0.53340000, 0.99060000, 0.09429750
4251, 0.60960000, 0.99060000, 0.09429750
4252, 0.68580000, 0.99060000, 0.09429750
4253, 0.76200000, 0.99060000, 0.09429750
4254, 0.83820000, 0.99060000, 0.09429750
4255, 0.91440000, 0.99060000, 0.09429750
4256, 0.99060000, 0.99060000, 0.09429750
4257, 1.06680000, 0.99060000, 0.09429750
4258, 1.14300000, 0.99060000, 0.09429750
4259, 1.21920000, 0.99060000, 0.09429750
4260, 1.29540000, 0.99060000, 0.09429750
4261, 1.37160000, 0.99060000, 0.09429750
4262, 1.44780000, 0.99060000, 0.09429750
4263, 1.52400000, 0.99060000, 0.09429750
4264, 0.00000000, 1.06680000, 0.09429750
4265, 0.07620000, 1.06680000, 0.09429750
4266, 0.15240000, 1.06680000, 0.09429750
4267, 0.22860000, 1.06680000, 0.09429750
4268, 0.30480000, 1.06680000, 0.09429750
4269, 0.38100000, 1.06680000, 0.09429750
4270, 0.45720000, 1.06680000, 0.09429750
4271, 0.53340000, 1.06680000, 0.09429750
4272, 0.60960000, 1.06680000, 0.09429750
4273, 0.68580000, 1.06680000, 0.09429750
4274, 0.76200000, 1.06680000, 0.09429750
4275, 0.83820000, 1.06680000, 0.09429750
4276, 0.91440000, 1.06680000, 0.09429750
4277, 0.99060000, 1.06680000, 0.09429750
4278, 1.06680000, 1.06680000, 0.09429750
4279, 1.14300000, 1.06680000, 0.09429750
4280, 1.21920000, 1.06680000, 0.09429750
4281, 1.29540000, 1.06680000, 0.09429750
4282, 1.37160000, 1.06680000, 0.09429750
4283, 1.44780000, 1.06680000, 0.09429750
4284, 1.52400000, 1.06680000, 0.09429750
4285, 0.00000000, 1.14300000, 0.09429750
4286, 0.07620000, 1.14300000, 0.09429750
4287, 0.15240000, 1.14300000, 0.09429750
4288, 0.22860000, 1.14300000, 0.09429750
4289, 0.30480000, 1.14300000, 0.09429750
4290, 0.38100000, 1.14300000, 0.09429750
4291, 0.45720000, 1.14300000, 0.09429750
4292, 0.53340000, 1.14300000, 0.09429750
4293, 0.60960000, 1.14300000, 0.09429750
4294, 0.68580000, 1.14300000, 0.09429750
4295, 0.76200000, 1.14300000, 0.09429750
4296, 0.83820000, 1.14300000, 0.09429750
4297, 0.91440000, 1.14300000, 0.09429750
4298, 0.99060000, 1.14300000, 0.09429750
4299, 1.06680000, 1.14300000, 0.09429750
4300, 1.14300000, 1.14300000, 0.09429750
4301, 1.21920000, 1.14300000, 0.09429750
4302, 1.29540000, 1.14300000, 0.09429750
4303, 1.37160000, 1.14300000, 0.09429750
4304, 1.44780000, 1.14300000, 0.09429750
4305, 1.52400000, 1.14300000, 0.09429750
4306, 0.00000000, 1.21920000, 0.09429750
4307, 0.07620000, 1.21920000, 0.09429750
4308, 0.15240000, 1.21920000, 0.09429750
4309, 0.22860000, 1.21920000, 0.09429750
4310, 0.30480000, 1.21920000, 0.09429750
4311, 0.38100000, 1.21920000, 0.09429750
4312, 0.45720000, 1.21920000, 0.09429750
4313, 0.53340000, 1.21920000, 0.09429750
4314, 0.60960000, 1.21920000, 0.09429750
4315, 0.68580000, 1.21920000, 0.09429750
4316, 0.76200000, 1.21920000, 0.09429750
4317, 0.83820000, 1.21920000, 0.09429750
4318, 0.91440000, 1.21920000, 0.09429750
4319, 0.99060000, 1.21920000, 0.09429750
4320, 1.06680000, 1.21920000, 0.09429750
4321, 1.14300000, 1.21920000, 0.09429750
4322, 1.21920000, 1.21920000, 0.09429750
4323, 1.29540000, 1.21920000, 0.09429750
4324, 1.37160000, 1.21920000, 0.09429750
4325, 1.44780000, 1.21920000, 0.09429750
4326, 1.52400000, 1.21920000, 0.09429750
4327, 0.00000000, 1.29540000, 0.09429750
4328, 0.07620000, 1.29540000, 0.09429750
4329, 0.15240000, 1.29540000, 0.09429750
4330, 0.22860000, 1.29540000, 0.09429750
4331, 0.30480000, 1.29540000, 0.09429750
4332, 0.38100000, 1.29540000, 0.09429750
4333, 0.45720000, 1.29540000, 0.09429750
4334, 0.53340000, 1.29540000, 0.09429750
4335, 0.60960000, 1.29540000, 0.09429750
4336, 0.68580000, 1.29540000, 0.09429750
4337, 0.76200000, 1.29540000, 0.09429750
4338, 0.83820000, 1.29540000, 0.09429750
4339, 0.91440000, 1.29540000, 0.09429750
4340, 0.99060000, 1.29540000, 0.09429750
4341, 1.06680000, 1.29540000, 0.09429750
4342, 1.14300000, 1.29540000, 0.09429750
4343, 1.21920000, 1.29540000, 0.09429750
4344, 1.29540000, 1.29540000, 0.09429750
4345, 1.37160000, 1.29540000, 0.09429750
4346, 1.44780000, 1.29540000, 0.09429750
4347, 1.52400000, 1.29540000, 0.09429750
4348, 0.00000000, 1.37160000, 0.09429750
4349, 0.07620000, 1.37160000, 0.09429750
4350, 0.15240000, 1.37160000, 0.09429750
4351, 0.22860000, 1.37160000, 0.09429750
4352, 0.30480000, 1.37160000, 0.09429750
4353, 0.38100000, 1.37160000, 0.09429750
4354, 0.45720000, 1.37160000, 0.09429750
4355, 0.53340000, 1.37160000, 0.09429750
4356, 0.60960000, 1.37160000, 0.09429750
4357, 0.68580000, 1.37160000, 0.09429750
4358, 0.76200000, 1.37160000, 0.09429750
4359, 0.83820000, 1.37160000, 0.09429750
4360, 0.91440000, 1.37160000, 0.09429750
4361, 0.99060000, 1.37160000, 0.09429750
4362, 1.06680000, 1.37160000, 0.09429750
4363, 1.14300000, 1.37160000, 0.09429750
4364, 1.21920000, 1.37160000, 0.09429750
4365, 1.29540000, 1.37160000, 0.09429750
4366, 1.37160000, 1.37160000, 0.09429750
4367, 1.44780000, 1.37160000, 0.09429750
4368, 1.52400000, 1.37160000, 0.09429750
4369, 0.00000000, 1.44780000, 0.09429750
4370, 0.07620000, 1.44780000, 0.09429750
4371, 0.15240000, 1.44780000, 0.09429750
4372, 0.22860000, 1.44780000, 0.09429750
4373, 0.30480000, 1.44780000, 0.09429750
4374, 0.38100000, 1.44780000, 0.09429750
4375, 0.45720000, 1.44780000, 0.09429750
4376, 0.53340000, 1.44780000, 0.09429750
4377, 0.60960000, 1.44780000, 0.09429750
4378, 0.68580000, 1.44780000, 0.09429750
4379, 0.76200000, 1.44780000, 0.09429750
4380, 0.83820000, 1.44780000, 0.09429750
4381, 0.91440000, 1.44780000, 0.09429750
4382, 0.99060000, 1.44780000, 0.09429750
4383, 1.06680000, 1.44780000, 0.09429750
4384, 1.14300000, 1.44780000, 0.09429750
4385, 1.21920000, 1.44780000, 0.09429750
4386, 1.29540000, 1.44780000, 0.09429750
4387, 1.37160000, 1.44780000, 0.09429750
4388, 1.44780000, 1.44780000, 0.09429750
4389, 1.52400000, 1.44780000, 0.09429750
4390, 0.00000000, 1.52400000, 0.09429750
4391, 0.07620000, 1.52400000, 0.09429750
4392, 0.15240000, 1.52400000, 0.09429750
4393, 0.22860000, 1.52400000, 0.09429750
4394, 0.30480000, 1.52400000, 0.09429750
4395, 0.38100000, 1.52400000, 0.09429750
4396, 0.45720000, 1.52400000, 0.09429750
4397, 0.53340000, 1.52400000, 0.09429750
4398, 0.60960000, 1.52400000, 0.09429750
4399, 0.68580000, 1.52400000, 0.09429750
4400, 0.76200000, 1.52400000, 0.09429750
4401, 0.83820000, 1.52400000, 0.09429750
4402, 0.91440000, 1.52400000, 0.09429750
4403, 0.99060000, 1.52400000, 0.09429750
4404, 1.06680000, 1.52400000, 0.09429750
4405, 1.14300000, 1.52400000, 0.09429750
4406, 1.21920000, 1.52400000, 0.09429750
4407, 1.29540000, 1.52400000, 0.09429750
4408, 1.37160000, 1.52400000, 0.09429750
4409, 1.44780000, 1.52400000, 0.09429750
4410, 1.52400000, 1.52400000, 0.09429750
4411, 0.00000000, 0.00000000, 0.11239500
4412, 0.07620000, 0.00000000, 0.11239500
4413, 0.15240000, 0.00000000, 0.11239500
4414, 0.22860000, 0.00000000, 0.11239500
4415, 0.30480000, 0.00000000, 0.11239500
4416, 0.38100000, 0.00000000, 0.11239500
4417, 0.45720000, 0.00000000, 0.11239500
4418, 0.53340000, 0.00000000, 0.11239500
4419, 0.60960000, 0.00000000, 0.11239500
4420, 0.68580000, 0.00000000, 0.11239500
4421, 0.76200000, 0.00000000, 0.11239500
4422, 0.83820000, 0.00000000, 0.11239500
4423, 0.91440000, 0.00000000, 0.11239500
4424, 0.99060000, 0.00000000, 0.11239500
4425, 1.06680000, 0.00000000, 0.11239500
4426, 1.14300000, 0.00000000, 0.11239500
4427, 1.21920000, 0.00000000, 0.11239500
4428, 1.29540000, 0.00000000, 0.11239500
4429, 1.37160000, 0.00000000, 0.11239500
4430, 1.44780000, 0.00000000, 0.11239500
4431, 1.52400000, 0.00000000, 0.11239500
4432, 0.00000000, 0.07620000, 0.11239500
4433, 0.07620000, 0.07620000, 0.11239500
4434, 0.15240000, 0.07620000, 0.11239500
4435, 0.22860000, 0.07620000, 0.11239500
4436, 0.30480000, 0.07620000, 0.11239500
4437, 0.38100000, 0.07620000, 0.11239500
4438, 0.45720000, 0.07620000, 0.11239500
4439, 0.53340000, 0.07620000, 0.11239500
4440, 0.60960000, 0.07620000, 0.11239500
4441, 0.68580000, 0.07620000, 0.11239500
4442, 0.76200000, 0.07620000, 0.11239500
4443, 0.83820000, 0.07620000, 0.11239500
4444, 0.91440000, 0.07620000, 0.11239500
4445, 0.99060000, 0.07620000, 0.11239500
4446, 1.06680000, 0.07620000, 0.11239500
4447, 1.14300000, 0.07620000, 0.11239500
4448, 1.21920000, 0.07620000, 0.11239500
4449, 1.29540000, 0.07620000, 0.11239500
4450, 1.37160000, 0.07620000, 0.11239500
4451, 1.44780000, 0.07620000, 0.11239500
4452, 1.52400000, 0.07620000, 0.11239500
4453, 0.00000000, 0.15240000, 0.11239500
4454, 0.07620000, 0.15240000, 0.11239500
4455, 0.15240000, 0.15240000, 0.11239500
4456, 0.22860000, 0.15240000, 0.11239500
4457, 0.30480000, 0.15240000, 0.11239500
4458, 0.38100000, 0.15240000, 0.11239500
4459, 0.45720000, 0.15240000, 0.11239500
4460, 0.53340000, 0.15240000, 0.11239500
4461, 0.60960000, 0.15240000, 0.11239500
4462, 0.68580000, 0.15240000, 0.11239500
4463, 0.76200000, 0.15240000, 0.11239500
4464, 0.83820000, 0.15240000, 0.11239500
4465, 0.91440000, 0.15240000, 0.11239500
4466, 0.99060000, 0.15240000, 0.11239500
4467, 1.06680000, 0.15240000, 0.11239500
4468, 1.14300000, 0.15240000, 0.11239500
4469, 1.21920000, 0.15240000, 0.11239500
4470, 1.29540000, 0.15240000, 0.11239500
4471, 1.37160000, 0.15240000, 0.11239500
4472, 1.44780000, 0.15240000, 0.11239500
4473, 1.52400000, 0.15240000, 0.11239500
4474, 0.00000000, 0.22860000, 0.11239500
4475, 0.07620000, 0.22860000, 0.11239500
4476, 0.15240000, 0.22860000, 0.11239500
4477, 0.22860000, 0.22860000, 0.11239500
4478, 0.30480000, 0.22860000, 0.11239500
4479, 0.38100000, 0.22860000, 0.11239500
4480, 0.45720000, 0.22860000, 0.11239500
4481, 0.53340000, 0.22860000, 0.11239500
4482, 0.60960000, 0.22860000, 0.11239500
4483, 0.68580000, 0.22860000, 0.11239500
4484, 0.76200000, 0.22860000, 0.11239500
4485, 0.83820000, 0.22860000, 0.11239500
4486, 0.91440000, 0.22860000, 0.11239500
4487, 0.99060000, 0.22860000, 0.11239500
4488, 1.06680000, 0.22860000, 0.11239500
4489, 1.14300000, 0.22860000, 0.11239500
4490, 1.21920000, 0.22860000, 0.11239500
4491, 1.29540000, 0.22860000, 0.11239500
4492, 1.37160000, 0.22860000, 0.11239500
4493, 1.44780000, 0.22860000, 0.11239500
4494, 1.52400000, 0.22860000, 0.11239500
4495, 0.00000000, 0.30480000, 0.11239500
4496, 0.07620000, 0.30480000, 0.11239500
4497, 0.15240000, 0.30480000, 0.11239500
4498, 0.22860000, 0.30480000, 0.11239500
4499, 0.30480000, 0.30480000, 0.11239500
4500, 0.38100000, 0.30480000, 0.11239500
4501, 0.45720000, 0.30480000, 0.11239500
4502, 0.53340000, 0.30480000, 0.11239500
4503, 0.60960000, 0.30480000, 0.11239500
4504, 0.68580000, 0.30480000, 0.11239500
4505, 0.76200000, 0.30480000, 0.11239500
4506, 0.83820000, 0.30480000, 0.11239500
4507, 0.91440000, 0.30480000, 0.11239500
4508, 0.99060000, 0.30480000, 0.11239500
4509, 1.06680000, 0.30480000, 0.11239500
4510, 1.14300000, 0.30480000, 0.11239500
4511, 1.21920000, 0.30480000, 0.11239500
4512, 1.29540000, 0.30480000, 0.11239500
4513, 1.37160000, 0.30480000, 0.11239500
4514, 1.44780000, 0.30480000, 0.11239500
4515, 1.52400000, 0.30480000, 0.11239500
4516, 0.00000000, 0.38100000, 0.11239500
4517, 0.07620000, 0.38100000, 0.11239500
4518, 0.15240000, 0.38100000, 0.11239500
4519, 0.22860000, 0.38100000, 0.11239500
4520, 0.30480000, 0.38100000, 0.11239500
4521, 0.38100000, 0.38100000, 0.11239500
4522, 0.45720000, 0.38100000, 0.11239500
4523, 0.53340000, 0.38100000, 0.11239500
4524, 0.60960000, 0.38100000, 0.11239500
4525, 0.68580000, 0.38100000, 0.11239500
4526, 0.76200000, 0.38100000, 0.11239500
4527, 0.83820000, 0.38100000, 0.11239500
4528, 0.91440000, 0.38100000, 0.11239500
4529, 0.99060000, 0.38100000, 0.11239500
4530, 1.06680000, 0.38100000, 0.11239500
4531, 1.14300000, 0.38100000, 0.11239500
4532, 1.21920000, 0.38100000, 0.11239500
4533, 1.29540000, 0.38100000, 0.11239500
4534, 1.37160000, 0.38100000, 0.11239500
4535, 1.44780000, 0.38100000, 0.11239500
4536, 1.52400000, 0.38100000, 0.11239500
4537, 0.00000000, 0.45720000, 0.11239500
4538, 0.07620000, 0.45720000, 0.11239500
4539, 0.15240000, 0.45720000, 0.11239500
4540, 0.22860000, 0.45720000, 0.11239500
4541, 0.30480000, 0.45720000, 0.11239500
4542, 0.38100000, 0.45720000, 0.11239500
4543, 0.45720000, 0.45720000, 0.11239500
4544, 0.53340000, 0.45720000, 0.11239500
4545, 0.60960000, 0.45720000, 0.11239500
4546, 0.68580000, 0.45720000, 0.11239500
4547, 0.76200000, 0.45720000, 0.11239500
4548, 0.83820000, 0.45720000, 0.11239500
4549, 0.91440000, 0.45720000, 0.11239500
4550, 0.99060000, 0.45720000, 0.11239500
4551, 1.06680000, 0.45720000, 0.11239500
4552, 1.14300000, 0.45720000, 0.11239500
4553, 1.21920000, 0.45720000, 0.11239500
4554, 1.29540000, 0.45720000, 0.11239500
4555, 1.37160000, 0.45720000, 0.11239500
4556, 1.44780000, 0.45720000, 0.11239500
4557, 1.52400000, 0.45720000, 0.11239500
4558, 0.00000000, 0.53340000, 0.11239500
4559, 0.07620000, 0.53340000, 0.11239500
4560, 0.15240000, 0.53340000, 0.11239500
4561, 0.22860000, 0.53340000, 0.11239500
4562, 0.30480000, 0.53340000, 0.11239500
4563, 0.38100000, 0.53340000, 0.11239500
4564, 0.45720000, 0.53340000, 0.11239500
4565, 0.53340000, 0.53340000, 0.11239500
4566, 0.60960000, 0.53340000, 0.11239500
4567, 0.68580000, 0.53340000, 0.11239500
4568, 0.76200000, 0.53340000, 0.11239500
4569, 0.83820000, 0.53340000, 0.11239500
4570, 0.91440000, 0.53340000, 0.11239500
4571, 0.99060000, 0.53340000, 0.11239500
4572, 1.06680000, 0.53340000, 0.11239500
4573, 1.14300000, 0.53340000, 0.11239500
4574, 1.21920000, 0.53340000, 0.11239500
4575, 1.29540000, 0.53340000, 0.11239500
4576, 1.37160000, 0.53340000, 0.11239500
4577, 1.44780000, 0.53340000, 0.11239500
4578, 1.52400000, 0.53340000, 0.11239500
4579, 0.00000000, 0.60960000, 0.11239500
4580, 0.07620000, 0.60960000, 0.11239500
4581, 0.15240000, 0.60960000, 0.11239500
4582, 0.22860000, 0.60960000, 0.11239500
4583, 0.30480000, 0.60960000, 0.11239500
4584, 0.38100000, 0.60960000, 0.11239500
4585, 0.45720000, 0.60960000, 0.11239500
4586, 0.53340000, 0.60960000, 0.11239500
4587, 0.60960000, 0.60960000, 0.11239500
4588, 0.68580000, 0.60960000, 0.11239500
4589, 0.76200000, 0.60960000, 0.11239500
4590, 0.83820000, 0.60960000, 0.11239500
4591, 0.91440000, 0.60960000, 0.11239500
4592, 0.99060000, 0.60960000, 0.11239500
4593, 1.06680000, 0.60960000, 0.11239500
4594, 1.14300000, 0.60960000, 0.11239500
4595, 1.21920000, 0.60960000, 0.11239500
4596, 1.29540000, 0.60960000, 0.11239500
4597, 1.37160000, 0.60960000, 0.11239500
4598, 1.44780000, 0.60960000, 0.11239500
4599, 1.52400000, 0.60960000, 0.11239500
4600, 0.00000000, 0.68580000, 0.11239500
4601, 0.07620000, 0.68580000, 0.11239500
4602, 0.15240000, 0.68580000, 0.11239500
4603, 0.22860000, 0.68580000, 0.11239500
4604, 0.30480000, 0.68580000, 0.11239500
4605, 0.38100000, 0.68580000, 0.11239500
4606, 0.45720000, 0.68580000, 0.11239500
4607, 0.53340000, 0.68580000, 0.11239500
4608, 0.60960000, 0.68580000, 0.11239500
4609, 0.68580000, 0.68580000, 0.11239500
4610, 0.76200000, 0.68580000, 0.11239500
4611, 0.83820000, 0.68580000, 0.11239500
4612, 0.91440000, 0.68580000, 0.11239500
4613, 0.99060000, 0.68580000, 0.11239500
4614, 1.06680000, 0.68580000, 0.11239500
4615, 1.14300000, 0.68580000, 0.11239500
4616, 1.21920000, 0.68580000, 0.11239500
4617, 1.29540000, 0.68580000, 0.11239500
4618, 1.37160000, 0.68580000, 0.11239500
4619, 1.44780000, 0.68580000, 0.11239500
4620, 1.52400000, 0.68580000, 0.11239500
4621, 0.00000000, 0.76200000, 0.11239500
4622, 0.07620000, 0.76200000, 0.11239500
4623, 0.15240000, 0.76200000, 0.11239500
4624, 0.22860000, 0.76200000, 0.11239500
4625, 0.30480000, 0.76200000, 0.11239500
4626, 0.38100000, 0.76200000, 0.11239500
4627, 0.45720000, 0.76200000, 0.11239500
4628, 0.53340000, 0.76200000, 0.11239500
4629, 0.60960000, 0.76200000, 0.11239500
4630, 0.68580000, 0.76200000, 0.11239500
4631, 0.76200000, 0.76200000, 0.11239500
4632, 0.83820000, 0.76200000, 0.11239500
4633, 0.91440000, 0.76200000, 0.11239500
4634, 0.99060000, 0.76200000, 0.11239500
4635, 1.06680000, 0.76200000, 0.11239500
4636, 1.14300000, 0.76200000, 0.11239500
4637, 1.21920000, 0.76200000, 0.11239500
4638, 1.29540000, 0.76200000, 0.11239500
4639, 1.37160000, 0.76200000, 0.11239500
4640, 1.44780000, 0.76200000, 0.11239500
4641, 1.52400000, 0.76200000, 0.11239500
4642, 0.00000000, 0.83820000, 0.11239500
4643, 0.07620000, 0.83820000, 0.11239500
4644, 0.15240000, 0.83820000, 0.11239500
4645, 0.22860000, 0.83820000, 0.11239500
4646, 0.30480000, 0.83820000, 0.11239500
4647, 0.38100000, 0.83820000, 0.11239500
4648, 0.45720000, 0.83820000, 0.11239500
4649, 0.53340000, 0.83820000, 0.11239500
4650, 0.60960000, 0.83820000, 0.11239500
4651, 0.68580000, 0.83820000, 0.11239500
4652, 0.76200000, 0.83820000, 0.11239500
4653, 0.83820000, 0.83820000, 0.11239500
4654, 0.91440000, 0.83820000, 0.11239500
4655, 0.99060000, 0.83820000, 0.11239500
4656, 1.06680000, 0.83820000, 0.11239500
4657, 1.14300000, 0.83820000, 0.11239500
4658, 1.21920000, 0.83820000, 0.11239500
4659, 1.29540000, 0.83820000, 0.11239500
4660, 1.37160000, 0.83820000, 0.11239500
4661, 1.44780000, 0.83820000, 0.11239500
4662, 1.52400000, 0.83820000, 0.11239500
4663, 0.00000000, 0.91440000, 0.11239500
4664, 0.07620000, 0.91440000, 0.11239500
4665, 0.15240000, 0.91440000, 0.11239500
4666, 0.22860000, 0.91440000, 0.11239500
4667, 0.30480000, 0.91440000, 0.11239500
4668, 0.38100000, 0.91440000, 0.11239500
4669, 0.45720000, 0.91440000, 0.11239500
4670, 0.53340000, 0.91440000, 0.11239500
4671, 0.60960000, 0.91440000, 0.11239500
4672, 0.68580000, 0.91440000, 0.11239500
4673, 0.76200000, 0.91440000, 0.11239500
4674, 0.83820000, 0.91440000, 0.11239500
4675, 0.91440000, 0.91440000, 0.11239500
4676, 0.99060000, 0.91440000, 0.11239500
4677, 1.06680000, 0.91440000, 0.11239500
4678, 1.14300000, 0.91440000, 0.11239500
4679, 1.21920000, 0.91440000, 0.11239500
4680, 1.29540000, 0.91440000, 0.11239500
4681, 1.37160000, 0.91440000, 0.11239500
4682, 1.44780000, 0.91440000, 0.11239500
4683, 1.52400000, 0.91440000, 0.11239500
4684, 0.00000000, 0.99060000, 0.11239500
4685, 0.07620000, 0.99060000, 0.11239500
4686, 0.15240000, 0.99060000, 0.11239500
4687, 0.22860000, 0.99060000, 0.11239500
4688, 0.30480000, 0.99060000, 0.11239500
4689, 0.38100000, 0.99060000, 0.11239500
4690, 0.45720000, 0.99060000, 0.11239500
4691, 0.53340000, 0.99060000, 0.11239500
4692, 0.60960000, 0.99060000, 0.11239500
4693, 0.68580000, 0.99060000, 0.11239500
4694, 0.76200000, 0.99060000, 0.11239500
4695, 0.83820000, 0.99060000, 0.11239500
4696, 0.91440000, 0.99060000, 0.11239500
4697, 0.99060000, 0.99060000, 0.11239500
4698, 1.06680000, 0.99060000, 0.11239500
4699, 1.14300000, 0.99060000, 0.11239500
4700, 1.21920000, 0.99060000, 0.11239500
4701, 1.29540000, 0.99060000, 0.11239500
4702, 1.37160000, 0.99060000, 0.11239500
4703, 1.44780000, 0.99060000, 0.11239500
4704, 1.52400000, 0.99060000, 0.11239500
4705, 0.00000000, 1.06680000, 0.11239500
4706, 0.07620000, 1.06680000, 0.11239500
4707, 0.15240000, 1.06680000, 0.11239500
4708, 0.22860000, 1.06680000, 0.11239500
4709, 0.30480000, 1.06680000, 0.11239500
4710, 0.38100000, 1.06680000, 0.11239500
4711, 0.45720000, 1.06680000, 0.11239500
4712, 0.53340000, 1.06680000, 0.11239500
4713, 0.60960000, 1.06680000, 0.11239500
4714, 0.68580000, 1.06680000, 0.11239500
4715, 0.76200000, 1.06680000, 0.11239500
4716, 0.83820000, 1.06680000, 0.11239500
4717, 0.91440000, 1.06680000, 0.11239500
4718, 0.99060000, 1.06680000, 0.11239500
4719, 1.06680000, 1.06680000, 0.11239500
4720, 1.14300000, 1.06680000, 0.11239500
4721, 1.21920000, 1.06680000, 0.11239500
4722, 1.29540000, 1.06680000, 0.11239500
4723, 1.37160000, 1.06680000, 0.11239500
4724, 1.44780000, 1.06680000, 0.11239500
4725, 1.52400000, 1.06680000, 0.11239500
4726, 0.00000000, 1.14300000, 0.11239500
4727, 0.07620000, 1.14300000, 0.11239500
4728, 0.15240000, 1.14300000, 0.11239500
4729, 0.22860000, 1.14300000, 0.11239500
4730, 0.30480000, 1.14300000, 0.11239500
4731, 0.38100000, 1.14300000, 0.11239500
4732, 0.45720000, 1.14300000, 0.11239500
4733, 0.53340000, 1.14300000, 0.11239500
4734, 0.60960000, 1.14300000, 0.11239500
4735, 0.68580000, 1.14300000, 0.11239500
4736, 0.76200000, 1.14300000, 0.11239500
4737, 0.83820000, 1.14300000, 0.11239500
4738, 0.91440000, 1.14300000, 0.11239500
4739, 0.99060000, 1.14300000, 0.11239500
4740, 1.06680000, 1.14300000, 0.11239500
4741, 1.14300000, 1.14300000, 0.11239500
4742, 1.21920000, 1.14300000, 0.11239500
4743, 1.29540000, 1.14300000, 0.11239500
4744, 1.37160000, 1.14300000, 0.11239500
4745, 1.44780000, 1.14300000, 0.11239500
4746, 1.52400000, 1.14300000, 0.11239500
4747, 0.00000000, 1.21920000, 0.11239500
4748, 0.07620000, 1.21920000, 0.11239500
4749, 0.15240000, 1.21920000, 0.11239500
4750, 0.22860000, 1.21920000, 0.11239500
4751, 0.30480000, 1.21920000, 0.11239500
4752, 0.38100000, 1.21920000, 0.11239500
4753, 0.45720000, 1.21920000, 0.11239500
4754, 0.53340000, 1.21920000, 0.11239500
4755, 0.60960000, 1.21920000, 0.11239500
4756, 0.68580000, 1.21920000, 0.11239500
4757, 0.76200000, 1.21920000, 0.11239500
4758, 0.83820000, 1.21920000, 0.11239500
4759, 0.91440000, 1.21920000, 0.11239500
4760, 0.99060000, 1.21920000, 0.11239500
4761, 1.06680000, 1.21920000, 0.11239500
4762, 1.14300000, 1.21920000, 0.11239500
4763, 1.21920000, 1.21920000, 0.11239500
4764, 1.29540000, 1.21920000, 0.11239500
4765, 1.37160000, 1.21920000, 0.11239500
4766, 1.44780000, 1.21920000, 0.11239500
4767, 1.52400000, 1.21920000, 0.11239500
4768, 0.00000000, 1.29540000, 0.11239500
4769, 0.07620000, 1.29540000, 0.11239500
4770, 0.15240000, 1.29540000, 0.11239500
4771, 0.22860000, 1.29540000, 0.11239500
4772, 0.30480000, 1.29540000, 0.11239500
4773, 0.38100000, 1.29540000, 0.11239500
4774, 0.45720000, 1.29540000, 0.11239500
4775, 0.53340000, 1.29540000, 0.11239500
4776, 0.60960000, 1.29540000, 0.11239500
4777, 0.68580000, 1.29540000, 0.11239500
4778, 0.76200000, 1.29540000, 0.11239500
4779, 0.83820000, 1.29540000, 0.11239500
4780, 0.91440000, 1.29540000, 0.11239500
4781, 0.99060000, 1.29540000, 0.11239500
4782, 1.06680000, 1.29540000, 0.11239500
4783, 1.14300000, 1.29540000, 0.11239500
4784, 1.21920000, 1.29540000, 0.11239500
4785, 1.29540000, 1.29540000, 0.11239500
4786, 1.37160000, 1.29540000, 0.11239500
4787, 1.44780000, 1.29540000, 0.11239500
4788, 1.52400000, 1.29540000, 0.11239500
4789, 0.00000000, 1.37160000, 0.11239500
4790, 0.07620000, 1.37160000, 0.11239500
4791, 0.15240000, 1.37160000, 0.11239500
4792, 0.22860000, 1.37160000, 0.11239500
4793, 0.30480000, 1.37160000, 0.11239500
4794, 0.38100000, 1.37160000, 0.11239500
4795, 0.45720000, 1.37160000, 0.11239500
4796, 0.53340000, 1.37160000, 0.11239500
4797, 0.60960000, 1.37160000, 0.11239500
4798, 0.68580000, 1.37160000, 0.11239500
4799, 0.76200000, 1.37160000, 0.11239500
4800, 0.83820000, 1.37160000, 0.11239500
4801, 0.91440000, 1.37160000, 0.11239500
4802, 0.99060000, 1.37160000, 0.11239500
4803, 1.06680000, 1.37160000, 0.11239500
4804, 1.14300000, 1.37160000, 0.11239500
4805, 1.21920000, 1.37160000, 0.11239500
4806, 1.29540000, 1.37160000, 0.11239500
4807, 1.37160000, 1.37160000, 0.11239500
4808, 1.44780000, 1.37160000, 0.11239500
4809, 1.52400000, 1.37160000, 0.11239500
4810, 0.00000000, 1.44780000, 0.11239500
4811, 0.07620000, 1.44780000, 0.11239500
4812, 0.15240000, 1.44780000, 0.11239500
4813, 0.22860000, 1.44780000, 0.11239500
4814, 0.30480000, 1.44780000, 0.11239500
4815, 0.38100000, 1.44780000, 0.11239500
4816, 0.45720000, 1.44780000, 0.11239500
4817, 0.53340000, 1.44780000, 0.11239500
4818, 0.60960000, 1.44780000, 0.11239500
4819, 0.68580000, 1.44780000, 0.11239500
4820, 0.76200000, 1.44780000, 0.11239500
4821, 0.83820000, 1.44780000, 0.11239500
4822, 0.91440000, 1.44780000, 0.11239500
4823, 0.99060000, 1.44780000, 0.11239500
4824, 1.06680000, 1.44780000, 0.11239500
4825, 1.14300000, 1.44780000, 0.11239500
4826, 1.21920000, 1.44780000, 0.11239500
4827, 1.29540000, 1.44780000, 0.11239500
4828, 1.37160000, 1.44780000, 0.11239500
4829, 1.44780000, 1.44780000, 0.11239500
4830, 1.52400000, 1.44780000, 0.11239500
4831, 0.00000000, 1.52400000, 0.11239500
4832, 0.07620000, 1.52400000, 0.11239500
4833, 0.15240000, 1.52400000, 0.11239500
4834, 0.22860000, 1.52400000, 0.11239500
4835, 0.30480000, 1.52400000, 0.11239500
4836, 0.38100000, 1.52400000, 0.11239500
4837, 0.45720000, 1.52400000, 0.11239500
4838, 0.53340000, 1.52400000, 0.11239500
4839, 0.60960000, 1.52400000, 0.11239500
4840, 0.68580000, 1.52400000, 0.11239500
4841, 0.76200000, 1.52400000, 0.11239500
4842, 0.83820000, 1.52400000, 0.11239500
4843, 0.91440000, 1.52400000, 0.11239500
4844, 0.99060000, 1.52400000, 0.11239500
4845, 1.06680000, 1.52400000, 0.11239500
4846, 1.14300000, 1.52400000, 0.11239500
4847, 1.21920000, 1.52400000, 0.11239500
4848, 1.29540000, 1.52400000, 0.11239500
4849, 1.37160000, 1.52400000, 0.11239500
4850, 1.44780000, 1.52400000, 0.11239500
4851, 1.52400000, 1.52400000, 0.11239500
4852, 0.00000000, 0.00000000, 0.13049250
4853, 0.07620000, 0.00000000, 0.13049250
4854, 0.15240000, 0.00000000, 0.13049250
4855, 0.22860000, 0.00000000, 0.13049250
4856, 0.30480000, 0.00000000, 0.13049250
4857, 0.38100000, 0.00000000, 0.13049250
4858, 0.45720000, 0.00000000, 0.13049250
4859, 0.53340000, 0.00000000, 0.13049250
4860, 0.60960000, 0.00000000, 0.13049250
4861, 0.68580000, 0.00000000, 0.13049250
4862, 0.76200000, 0.00000000, 0.13049250
4863, 0.83820000, 0.00000000, 0.13049250
4864, 0.91440000, 0.00000000, 0.13049250
4865, 0.99060000, 0.00000000, 0.13049250
4866, 1.06680000, 0.00000000, 0.13049250
4867, 1.14300000, 0.00000000, 0.13049250
4868, 1.21920000, 0.00000000, 0.13049250
4869, 1.29540000, 0.00000000, 0.13049250
4870, 1.37160000, 0.00000000, 0.13049250
4871, 1.44780000, 0.00000000, 0.13049250
4872, 1.52400000, 0.00000000, 0.13049250
4873, 0.00000000, 0.07620000, 0.13049250
4874, 0.07620000, 0.07620000, 0.13049250
4875, 0.15240000, 0.07620000, 0.13049250
4876, 0.22860000, 0.07620000, 0.13049250
4877, 0.30480000, 0.07620000, 0.13049250
4878, 0.38100000, 0.07620000, 0.13049250
4879, 0.45720000, 0.07620000, 0.13049250
4880, 0.53340000, 0.07620000, 0.13049250
4881, 0.60960000, 0.07620000, 0.13049250
4882, 0.68580000, 0.07620000, 0.13049250
4883, 0.76200000, 0.07620000, 0.13049250
4884, 0.83820000, 0.07620000, 0.13049250
4885, 0.91440000, 0.07620000, 0.13049250
4886, 0.99060000, 0.07620000, 0.13049250
4887, 1.06680000, 0.07620000, 0.13049250
4888, 1.14300000, 0.07620000, 0.13049250
4889, 1.21920000, 0.07620000, 0.13049250
4890, 1.29540000, 0.07620000, 0.13049250
4891, 1.37160000, 0.07620000, 0.13049250
4892, 1.44780000, 0.07620000, 0.13049250
4893, 1.52400000, 0.07620000, 0.13049250
4894, 0.00000000, 0.15240000, 0.13049250
4895, 0.07620000, 0.15240000, 0.13049250
4896, 0.15240000, 0.15240000, 0.13049250
4897, 0.22860000, 0.15240000, 0.13049250
4898, 0.30480000, 0.15240000, 0.13049250
4899, 0.38100000, 0.15240000, 0.13049250
4900, 0.45720000, 0.15240000, 0.13049250
4901, 0.53340000, 0.15240000, 0.13049250
4902, 0.60960000, 0.15240000, 0.13049250
4903, 0.68580000, 0.15240000, 0.13049250
4904, 0.76200000, 0.15240000, 0.13049250
4905, 0.83820000, 0.15240000, 0.13049250
4906, 0.91440000, 0.15240000, 0.13049250
4907, 0.99060000, 0.15240000, 0.13049250
4908, 1.06680000, 0.15240000, 0.13049250
4909, 1.14300000, 0.15240000, 0.13049250
4910, 1.21920000, 0.15240000, 0.13049250
4911, 1.29540000, 0.15240000, 0.13049250
4912, 1.37160000, 0.15240000, 0.13049250
4913, 1.44780000, 0.15240000, 0.13049250
4914, 1.52400000, 0.15240000, 0.13049250
4915, 0.00000000, 0.22860000, 0.13049250
4916, 0.07620000, 0.22860000, 0.13049250
4917, 0.15240000, 0.22860000, 0.13049250
4918, 0.22860000, 0.22860000, 0.13049250
4919, 0.30480000, 0.22860000, 0.13049250
4920, 0.38100000, 0.22860000, 0.13049250
4921, 0.45720000, 0.22860000, 0.13049250
4922, 0.53340000, 0.22860000, 0.13049250
4923, 0.60960000, 0.22860000, 0.13049250
4924, 0.68580000, 0.22860000, 0.13049250
4925, 0.76200000, 0.22860000, 0.13049250
4926, 0.83820000, 0.22860000, 0.13049250
4927, 0.91440000, 0.22860000, 0.13049250
4928, 0.99060000, 0.22860000, 0.13049250
4929, 1.06680000, 0.22860000, 0.13049250
4930, 1.14300000, 0.22860000, 0.13049250
4931, 1.21920000, 0.22860000, 0.13049250
4932, 1.29540000, 0.22860000, 0.13049250
4933, 1.37160000, 0.22860000, 0.13049250
4934, 1.44780000, 0.22860000, 0.13049250
4935, 1.52400000, 0.22860000, 0.13049250
4936, 0.00000000, 0.30480000, 0.13049250
4937, 0.07620000, 0.30480000, 0.13049250
4938, 0.15240000, 0.30480000, 0.13049250
4939, 0.22860000, 0.30480000, 0.13049250
4940, 0.30480000, 0.30480000, 0.13049250
4941, 0.38100000, 0.30480000, 0.13049250
4942, 0.45720000, 0.30480000, 0.13049250
4943, 0.53340000, 0.30480000, 0.13049250
4944, 0.60960000, 0.30480000, 0.13049250
4945, 0.68580000, 0.30480000, 0.13049250
4946, 0.76200000, 0.30480000, 0.13049250
4947, 0.83820000, 0.30480000, 0.13049250
4948, 0.91440000, 0.30480000, 0.13049250
4949, 0.99060000, 0.30480000, 0.13049250
4950, 1.06680000, 0.30480000, 0.13049250
4951, 1.14300000, 0.30480000, 0.13049250
4952, 1.21920000, 0.30480000, 0.13049250
4953, 1.29540000, 0.30480000, 0.13049250
4954, 1.37160000, 0.30480000, 0.13049250
4955, 1.44780000, 0.30480000, 0.13049250
4956, 1.52400000, 0.30480000, 0.13049250
4957, 0.00000000, 0.38100000, 0.13049250
4958, 0.07620000, 0.38100000, 0.13049250
4959, 0.15240000, 0.38100000, 0.13049250
4960, 0.22860000, 0.38100000, 0.13049250
4961, 0.30480000, 0.38100000, 0.13049250
4962, 0.38100000, 0.38100000, 0.13049250
4963, 0.45720000, 0.38100000, 0.13049250
4964, 0.53340000, 0.38100000, 0.13049250
4965, 0.60960000, 0.38100000, 0.13049250
4966, 0.68580000, 0.38100000, 0.13049250
4967, 0.76200000, 0.38100000, 0.13049250
4968, 0.83820000, 0.38100000, 0.13049250
4969, 0.91440000, 0.38100000, 0.13049250
4970, 0.99060000, 0.38100000, 0.13049250
4971, 1.06680000, 0.38100000, 0.13049250
4972, 1.14300000, 0.38100000, 0.13049250
4973, 1.21920000, 0.38100000, 0.13049250
4974, 1.29540000, 0.38100000, 0.13049250
4975, 1.37160000, 0.38100000, 0.13049250
4976, 1.44780000, 0.38100000, 0.13049250
4977, 1.52400000, 0.38100000, 0.13049250
4978, 0.00000000, 0.45720000, 0.13049250
4979, 0.07620000, 0.45720000, 0.13049250
4980, 0.15240000, 0.45720000, 0.13049250
4981, 0.22860000, 0.45720000, 0.13049250
4982, 0.30480000, 0.45720000, 0.13049250
4983, 0.38100000, 0.45720000, 0.13049250
4984, 0.45720000, 0.45720000, 0.13049250
4985, 0.53340000, 0.45720000, 0.13049250
4986, 0.60960000, 0.45720000, 0.13049250
4987, 0.68580000, 0.45720000, 0.13049250
4988, 0.76200000, 0.45720000, 0.13049250
4989, 0.83820000, 0.45720000, 0.13049250
4990, 0.91440000, 0.45720000, 0.13049250
4991, 0.99060000, 0.45720000, 0.13049250
4992, 1.06680000, 0.45720000, 0.13049250
4993, 1.14300000, 0.45720000, 0.13049250
4994, 1.21920000, 0.45720000, 0.13049250
4995, 1.29540000, 0.45720000, 0.13049250
4996, 1.37160000, 0.45720000, 0.13049250
4997, 1.44780000, 0.45720000, 0.13049250
4998, 1.52400000, 0.45720000, 0.13049250
4999, 0.00000000, 0.53340000, 0.13049250
5000, 0.07620000, 0.53340000, 0.13049250
5001, 0.15240000, 0.53340000, 0.13049250
5002, 0.22860000, 0.53340000, 0.13049250
5003, 0.30480000, 0.53340000, 0.13049250
5004, 0.38100000, 0.53340000, 0.13049250
5005, 0.45720000, 0.53340000, 0.13049250
5006, 0.53340000, 0.53340000, 0.13049250
5007, 0.60960000, 0.53340000, 0.13049250
5008, 0.68580000, 0.53340000, 0.13049250
5009, 0.76200000, 0.53340000, 0.13049250
5010, 0.83820000, 0.53340000, 0.13049250
5011, 0.91440000, 0.53340000, 0.13049250
5012, 0.99060000, 0.53340000, 0.13049250
5013, 1.06680000, 0.53340000, 0.13049250
5014, 1.14300000, 0.53340000, 0.13049250
5015, 1.21920000, 0.53340000, 0.13049250
5016, 1.29540000, 0.53340000, 0.13049250
5017, 1.37160000, 0.53340000, 0.13049250
5018, 1.44780000, 0.53340000, 0.13049250
5019, 1.52400000, 0.53340000, 0.13049250
5020, 0.00000000, 0.60960000, 0.13049250
5021, 0.07620000, 0.60960000, 0.13049250
5022, 0.15240000, 0.60960000, 0.13049250
5023, 0.22860000, 0.60960000, 0.13049250
5024, 0.30480000, 0.60960000, 0.13049250
5025, 0.38100000, 0.60960000, 0.13049250
5026, 0.45720000, 0.60960000, 0.13049250
5027, 0.53340000, 0.60960000, 0.13049250
5028, 0.60960000, 0.60960000, 0.13049250
5029, 0.68580000, 0.60960000, 0.13049250
5030, 0.76200000, 0.60960000, 0.13049250
5031, 0.83820000, 0.60960000, 0.13049250
5032, 0.91440000, 0.60960000, 0.13049250
5033, 0.99060000, 0.60960000, 0.13049250
5034, 1.06680000, 0.60960000, 0.13049250
5035, 1.14300000, 0.60960000, 0.13049250
5036, 1.21920000, 0.60960000, 0.13049250
5037, 1.29540000, 0.60960000, 0.13049250
5038, 1.37160000, 0.60960000, 0.13049250
5039, 1.44780000, 0.60960000, 0.13049250
5040, 1.52400000, 0.60960000, 0.13049250
5041, 0.00000000, 0.68580000, 0.13049250
5042, 0.07620000, 0.68580000, 0.13049250
5043, 0.15240000, 0.68580000, 0.13049250
5044, 0.22860000, 0.68580000, 0.13049250
5045, 0.30480000, 0.68580000, 0.13049250
5046, 0.38100000, 0.68580000, 0.13049250
5047, 0.45720000, 0.68580000, 0.13049250
5048, 0.53340000, 0.68580000, 0.13049250
5049, 0.60960000, 0.68580000, 0.13049250
5050, 0.68580000, 0.68580000, 0.13049250
5051, 0.76200000, 0.68580000, 0.13049250
5052, 0.83820000, 0.68580000, 0.13049250
5053, 0.91440000, 0.68580000, 0.13049250
5054, 0.99060000, 0.68580000, 0.13049250
5055, 1.06680000, 0.68580000, 0.13049250
5056, 1.14300000, 0.68580000, 0.13049250
5057, 1.21920000, 0.68580000, 0.13049250
5058, 1.29540000, 0.68580000, 0.13049250
5059, 1.37160000, 0.68580000, 0.13049250
5060, 1.44780000, 0.68580000, 0.13049250
5061, 1.52400000, 0.68580000, 0.13049250
5062, 0.00000000, 0.76200000, 0.13049250
5063, 0.07620000, 0.76200000, 0.13049250
5064, 0.15240000, 0.76200000, 0.13049250
5065, 0.22860000, 0.76200000, 0.13049250
5066, 0.30480000, 0.76200000, 0.13049250
5067, 0.38100000, 0.76200000, 0.13049250
5068, 0.45720000, 0.76200000, 0.13049250
5069, 0.53340000, 0.76200000, 0.13049250
5070, 0.60960000, 0.76200000, 0.13049250
5071, 0.68580000, 0.76200000, 0.13049250
5072, 0.76200000, 0.76200000, 0.13049250
5073, 0.83820000, 0.76200000, 0.13049250
5074, 0.91440000, 0.76200000, 0.13049250
5075, 0.99060000, 0.76200000, 0.13049250
5076, 1.06680000, 0.76200000, 0.13049250
5077, 1.14300000, 0.76200000, 0.13049250
5078, 1.21920000, 0.76200000, 0.13049250
5079, 1.29540000, 0.76200000, 0.13049250
5080, 1.37160000, 0.76200000, 0.13049250
5081, 1.44780000, 0.76200000, 0.13049250
5082, 1.52400000, 0.76200000, 0.13049250
5083, 0.00000000, 0.83820000, 0.13049250
5084, 0.07620000, 0.83820000, 0.13049250
5085, 0.15240000, 0.83820000, 0.13049250
5086, 0.22860000, 0.83820000, 0.13049250
5087, 0.30480000, 0.83820000, 0.13049250
5088, 0.38100000, 0.83820000, 0.13049250
5089, 0.45720000, 0.83820000, 0.13049250
5090, 0.53340000, 0.83820000, 0.13049250
5091, 0.60960000, 0.83820000, 0.13049250
5092, 0.68580000, 0.83820000, 0.13049250
5093, 0.76200000, 0.83820000, 0.13049250
5094, 0.83820000, 0.83820000, 0.13049250
5095, 0.91440000, 0.83820000, 0.13049250
5096, 0.99060000, 0.83820000, 0.13049250
5097, 1.06680000, 0.83820000, 0.13049250
5098, 1.14300000, 0.83820000, 0.13049250
5099, 1.21920000, 0.83820000, 0.13049250
5100, 1.29540000, 0.83820000, 0.13049250
5101, 1.37160000, 0.83820000, 0.13049250
5102, 1.44780000, 0.83820000, 0.13049250
5103, 1.52400000, 0.83820000, 0.13049250
5104, 0.00000000, 0.91440000, 0.13049250
5105, 0.07620000, 0.91440000, 0.13049250
5106, 0.15240000, 0.91440000, 0.13049250
5107, 0.22860000, 0.91440000, 0.13049250
5108, 0.30480000, 0.91440000, 0.13049250
5109, 0.38100000, 0.91440000, 0.13049250
5110, 0.45720000, 0.91440000, 0.13049250
5111, 0.53340000, 0.91440000, 0.13049250
5112, 0.60960000, 0.91440000, 0.13049250
5113, 0.68580000, 0.91440000, 0.13049250
5114, 0.76200000, 0.91440000, 0.13049250
5115, 0.83820000, 0.91440000, 0.13049250
5116, 0.91440000, 0.91440000, 0.13049250
5117, 0.99060000, 0.91440000, 0.13049250
5118, 1.06680000, 0.91440000, 0.13049250
5119, 1.14300000, 0.91440000, 0.13049250
5120, 1.21920000, 0.91440000, 0.13049250
5121, 1.29540000, 0.91440000, 0.13049250
5122, 1.37160000, 0.91440000, 0.13049250
5123, 1.44780000, 0.91440000, 0.13049250
5124, 1.52400000, 0.91440000, 0.13049250
5125, 0.00000000, 0.99060000, 0.13049250
5126, 0.07620000, 0.99060000, 0.13049250
5127, 0.15240000, 0.99060000, 0.13049250
5128, 0.22860000, 0.99060000, 0.13049250
5129, 0.30480000, 0.99060000, 0.13049250
5130, 0.38100000, 0.99060000, 0.13049250
5131, 0.45720000, 0.99060000, 0.13049250
5132, 0.53340000, 0.99060000, 0.13049250
5133, 0.60960000, 0.99060000, 0.13049250
5134, 0.68580000, 0.99060000, 0.13049250
5135, 0.76200000, 0.99060000, 0.13049250
5136, 0.83820000, 0.99060000, 0.13049250
5137, 0.91440000, 0.99060000, 0.13049250
5138, 0.99060000, 0.99060000, 0.13049250
5139, 1.06680000, 0.99060000, 0.13049250
5140, 1.14300000, 0.99060000, 0.13049250
5141, 1.21920000, 0.99060000, 0.13049250
5142, 1.29540000, 0.99060000, 0.13049250
5143, 1.37160000, 0.99060000, 0.13049250
5144, 1.44780000, 0.99060000, 0.13049250
5145, 1.52400000, 0.99060000, 0.13049250
5146, 0.00000000, 1.06680000, 0.13049250
5147, 0.07620000, 1.06680000, 0.13049250
5148, 0.15240000, 1.06680000, 0.13049250
5149, 0.22860000, 1.06680000, 0.13049250
5150, 0.30480000, 1.06680000, 0.13049250
5151, 0.38100000, 1.06680000, 0.13049250
5152, 0.45720000, 1.06680000, 0.13049250
5153, 0.53340000, 1.06680000, 0.13049250
5154, 0.60960000, 1.06680000, 0.13049250
5155, 0.68580000, 1.06680000, 0.13049250
5156, 0.76200000, 1.06680000, 0.13049250
5157, 0.83820000, 1.06680000, 0.13049250
5158, 0.91440000, 1.06680000, 0.13049250
5159, 0.99060000, 1.06680000, 0.13049250
5160, 1.06680000, 1.06680000, 0.13049250
5161, 1.14300000, 1.06680000, 0.13049250
5162, 1.21920000, 1.06680000, 0.13049250
5163, 1.29540000, 1.06680000, 0.13049250
5164, 1.37160000, 1.06680000, 0.13049250
5165, 1.44780000, 1.06680000, 0.13049250
5166, 1.52400000, 1.06680000, 0.13049250
5167, 0.00000000, 1.14300000, 0.13049250
5168, 0.07620000, 1.14300000, 0.13049250
5169, 0.15240000, 1.14300000, 0.13049250
5170, 0.22860000, 1.14300000, 0.13049250
5171, 0.30480000, 1.14300000, 0.13049250
5172, 0.38100000, 1.14300000, 0.13049250
5173, 0.45720000, 1.14300000, 0.13049250
5174, 0.53340000, 1.14300000, 0.13049250
5175, 0.60960000, 1.14300000, 0.13049250
5176, 0.68580000, 1.14300000, 0.13049250
5177, 0.76200000, 1.14300000, 0.13049250
5178, 0.83820000, 1.14300000, 0.13049250
5179, 0.91440000, 1.14300000, 0.13049250
5180, 0.99060000, 1.14300000, 0.13049250
5181, 1.06680000, 1.14300000, 0.13049250
5182, 1.14300000, 1.14300000, 0.13049250
5183, 1.21920000, 1.14300000, 0.13049250
5184, 1.29540000, 1.14300000, 0.13049250
5185, 1.37160000, 1.14300000, 0.13049250
5186, 1.44780000, 1.14300000, 0.13049250
5187, 1.52400000, 1.14300000, 0.13049250
5188, 0.00000000, 1.21920000, 0.13049250
5189, 0.07620000, 1.21920000, 0.13049250
5190, 0.15240000, 1.21920000, 0.13049250
5191, 0.22860000, 1.21920000, 0.13049250
5192, 0.30480000, 1.21920000, 0.13049250
5193, 0.38100000, 1.21920000, 0.13049250
5194, 0.45720000, 1.21920000, 0.13049250
5195, 0.53340000, 1.21920000, 0.13049250
5196, 0.60960000, 1.21920000, 0.13049250
5197, 0.68580000, 1.21920000, 0.13049250
5198, 0.76200000, 1.21920000, 0.13049250
5199, 0.83820000, 1.21920000, 0.13049250
5200, 0.91440000, 1.21920000, 0.13049250
5201, 0.99060000, 1.21920000, 0.13049250
5202, 1.06680000, 1.21920000, 0.13049250
5203, 1.14300000, 1.21920000, 0.13049250
5204, 1.21920000, 1.21920000, 0.13049250
5205, 1.29540000, 1.21920000, 0.13049250
5206, 1.37160000, 1.21920000, 0.13049250
5207, 1.44780000, 1.21920000, 0.13049250
5208, 1.52400000, 1.21920000, 0.13049250
5209, 0.00000000, 1.29540000, 0.13049250
5210, 0.07620000, 1.29540000, 0.13049250
5211, 0.15240000, 1.29540000, 0.13049250
5212, 0.22860000, 1.29540000, 0.13049250
5213, 0.30480000, 1.29540000, 0.13049250
5214, 0.38100000, 1.29540000, 0.13049250
5215, 0.45720000, 1.29540000, 0.13049250
5216, 0.53340000, 1.29540000, 0.13049250
5217, 0.60960000, 1.29540000, 0.13049250
5218, 0.68580000, 1.29540000, 0.13049250
5219, 0.76200000, 1.29540000, 0.13049250
5220, 0.83820000, 1.29540000, 0.13049250
5221, 0.91440000, 1.29540000, 0.13049250
5222, 0.99060000, 1.29540000, 0.13049250
5223, 1.06680000, 1.29540000, 0.13049250
5224, 1.14300000, 1.29540000, 0.13049250
5225, 1.21920000, 1.29540000, 0.13049250
5226, 1.29540000, 1.29540000, 0.13049250
5227, 1.37160000, 1.29540000, 0.13049250
5228, 1.44780000, 1.29540000, 0.13049250
5229, 1.52400000, 1.29540000, 0.13049250
5230, 0.00000000, 1.37160000, 0.13049250
5231, 0.07620000, 1.37160000, 0.13049250
5232, 0.15240000, 1.37160000, 0.13049250
5233, 0.22860000, 1.37160000, 0.13049250
5234, 0.30480000, 1.37160000, 0.13049250
5235, 0.38100000, 1.37160000, 0.13049250
5236, 0.45720000, 1.37160000, 0.13049250
5237, 0.53340000, 1.37160000, 0.13049250
5238, 0.60960000, 1.37160000, 0.13049250
5239, 0.68580000, 1.37160000, 0.13049250
5240, 0.76200000, 1.37160000, 0.13049250
5241, 0.83820000, 1.37160000, 0.13049250
5242, 0.91440000, 1.37160000, 0.13049250
5243, 0.99060000, 1.37160000, 0.13049250
5244, 1.06680000, 1.37160000, 0.13049250
5245, 1.14300000, 1.37160000, 0.13049250
5246, 1.21920000, 1.37160000, 0.13049250
5247, 1.29540000, 1.37160000, 0.13049250
5248, 1.37160000, 1.37160000, 0.13049250
5249, 1.44780000, 1.37160000, 0.13049250
5250, 1.52400000, 1.37160000, 0.13049250
5251, 0.00000000, 1.44780000, 0.13049250
5252, 0.07620000, 1.44780000, 0.13049250
5253, 0.15240000, 1.44780000, 0.13049250
5254, 0.22860000, 1.44780000, 0.13049250
5255, 0.30480000, 1.44780000, 0.13049250
5256, 0.38100000, 1.44780000, 0.13049250
5257, 0.45720000, 1.44780000, 0.13049250
5258, 0.53340000, 1.44780000, 0.13049250
5259, 0.60960000, 1.44780000, 0.13049250
5260, 0.68580000, 1.44780000, 0.13049250
5261, 0.76200000, 1.44780000, 0.13049250
5262, 0.83820000, 1.44780000, 0.13049250
5263, 0.91440000, 1.44780000, 0.13049250
5264, 0.99060000, 1.44780000, 0.13049250
5265, 1.06680000, 1.44780000, 0.13049250
5266, 1.14300000, 1.44780000, 0.13049250
5267, 1.21920000, 1.44780000, 0.13049250
5268, 1.29540000, 1.44780000, 0.13049250
5269, 1.37160000, 1.44780000, 0.13049250
5270, 1.44780000, 1.44780000, 0.13049250
5271, 1.52400000, 1.44780000, 0.13049250
5272, 0.00000000, 1.52400000, 0.13049250
5273, 0.07620000, 1.52400000, 0.13049250
5274, 0.15240000, 1.52400000, 0.13049250
5275, 0.22860000, 1.52400000, 0.13049250
5276, 0.30480000, 1.52400000, 0.13049250
5277, 0.38100000, 1.52400000, 0.13049250
5278, 0.45720000, 1.52400000, 0.13049250
5279, 0.53340000, 1.52400000, 0.13049250
5280, 0.60960000, 1.52400000, 0.13049250
5281, 0.68580000, 1.52400000, 0.13049250
5282, 0.76200000, 1.52400000, 0.13049250
5283, 0.83820000, 1.52400000, 0.13049250
5284, 0.91440000, 1.52400000, 0.13049250
5285, 0.99060000, 1.52400000, 0.13049250
5286, 1.06680000, 1.52400000, 0.13049250
5287, 1.14300000, 1.52400000, 0.13049250
5288, 1.21920000, 1.52400000, 0.13049250
5289, 1.29540000, 1.52400000, 0.13049250
5290, 1.37160000, 1.52400000, 0.13049250
5291, 1.44780000, 1.52400000, 0.13049250
5292, 1.52400000, 1.52400000, 0.13049250
5293, 0.00000000, 0.00000000, 0.14859000
5294, 0.07620000, 0.00000000, 0.14859000
5295, 0.15240000, 0.00000000, 0.14859000
5296, 0.22860000, 0.00000000, 0.14859000
5297, 0.30480000, 0.00000000, 0.14859000
5298, 0.38100000, 0.00000000, 0.14859000
5299, 0.45720000, 0.00000000, 0.14859000
5300, 0.53340000, 0.00000000, 0.14859000
5301, 0.60960000, 0.00000000, 0.14859000
5302, 0.68580000, 0.00000000, 0.14859000
5303, 0.76200000, 0.00000000, 0.14859000
5304, 0.83820000, 0.00000000, 0.14859000
5305, 0.91440000, 0.00000000, 0.14859000
5306, 0.99060000, 0.00000000, 0.14859000
5307, 1.06680000, 0.00000000, 0.14859000
5308, 1.14300000, 0.00000000, 0.14859000
5309, 1.21920000, 0.00000000, 0.14859000
5310, 1.29540000, 0.00000000, 0.14859000
5311, 1.37160000, 0.00000000, 0.14859000
5312, 1.44780000, 0.00000000, 0.14859000
5313, 1.52400000, 0.00000000, 0.14859000
5314, 0.00000000, 0.07620000, 0.14859000
5315, 0.07620000, 0.07620000, 0.14859000
5316, 0.15240000, 0.07620000, 0.14859000
5317, 0.22860000, 0.07620000, 0.14859000
5318, 0.30480000, 0.07620000, 0.14859000
5319, 0.38100000, 0.07620000, 0.14859000
5320, 0.45720000, 0.07620000, 0.14859000
5321, 0.53340000, 0.07620000, 0.14859000
5322, 0.60960000, 0.07620000, 0.14859000
5323, 0.68580000, 0.07620000, 0.14859000
5324, 0.76200000, 0.07620000, 0.14859000
5325, 0.83820000, 0.07620000, 0.14859000
5326, 0.91440000, 0.07620000, 0.14859000
5327, 0.99060000, 0.07620000, 0.14859000
5328, 1.06680000, 0.07620000, 0.14859000
5329, 1.14300000, 0.07620000, 0.14859000
5330, 1.21920000, 0.07620000, 0.14859000
5331, 1.29540000, 0.07620000, 0.14859000
5332, 1.37160000, 0.07620000, 0.14859000
5333, 1.44780000, 0.07620000, 0.14859000
5334, 1.52400000, 0.07620000, 0.14859000
5335, 0.00000000, 0.15240000, 0.14859000
5336, 0.07620000, 0.15240000, 0.14859000
5337, 0.15240000, 0.15240000, 0.14859000
5338, 0.22860000, 0.15240000, 0.14859000
5339, 0.30480000, 0.15240000, 0.14859000
5340, 0.38100000, 0.15240000, 0.14859000
5341, 0.45720000, 0.15240000, 0.14859000
5342, 0.53340000, 0.15240000, 0.14859000
5343, 0.60960000, 0.15240000, 0.14859000
5344, 0.68580000, 0.15240000, 0.14859000
5345, 0.76200000, 0.15240000, 0.14859000
5346, 0.83820000, 0.15240000, 0.14859000
5347, 0.91440000, 0.15240000, 0.14859000
5348, 0.99060000, 0.15240000, 0.14859000
5349, 1.06680000, 0.15240000, 0.14859000
5350, 1.14300000, 0.15240000, 0.14859000
5351, 1.21920000, 0.15240000, 0.14859000
5352, 1.29540000, 0.15240000, 0.14859000
5353, 1.37160000, 0.15240000, 0.14859000
5354, 1.44780000, 0.15240000, 0.14859000
5355, 1.52400000, 0.15240000, 0.14859000
5356, 0.00000000, 0.22860000, 0.14859000
5357, 0.07620000, 0.22860000, 0.14859000
5358, 0.15240000, 0.22860000, 0.14859000
5359, 0.22860000, 0.22860000, 0.14859000
5360, 0.30480000, 0.22860000, 0.14859000
5361, 0.38100000, 0.22860000, 0.14859000
5362, 0.45720000, 0.22860000, 0.14859000
5363, 0.53340000, 0.22860000, 0.14859000
5364, 0.60960000, 0.22860000, 0.14859000
5365, 0.68580000, 0.22860000, 0.14859000
5366, 0.76200000, 0.22860000, 0.14859000
5367, 0.83820000, 0.22860000, 0.14859000
5368, 0.91440000, 0.22860000, 0.14859000
5369, 0.99060000, 0.22860000, 0.14859000
5370, 1.06680000, 0.22860000, 0.14859000
5371, 1.14300000, 0.22860000, 0.14859000
5372, 1.21920000, 0.22860000, 0.14859000
5373, 1.29540000, 0.22860000, 0.14859000
5374, 1.37160000, 0.22860000, 0.14859000
5375, 1.44780000, 0.22860000, 0.14859000
5376, 1.52400000, 0.22860000, 0.14859000
5377, 0.00000000, 0.30480000, 0.14859000
5378, 0.07620000, 0.30480000, 0.14859000
5379, 0.15240000, 0.30480000, 0.14859000
5380, 0.22860000, 0.30480000, 0.14859000
5381, 0.30480000, 0.30480000, 0.14859000
5382, 0.38100000, 0.30480000, 0.14859000
5383, 0.45720000, 0.30480000, 0.14859000
5384, 0.53340000, 0.30480000, 0.14859000
5385, 0.60960000, 0.30480000, 0.14859000
5386, 0.68580000, 0.30480000, 0.14859000
5387, 0.76200000, 0.30480000, 0.14859000
5388, 0.83820000, 0.30480000, 0.14859000
5389, 0.91440000, 0.30480000, 0.14859000
5390, 0.99060000, 0.30480000, 0.14859000
5391, 1.06680000, 0.30480000, 0.14859000
5392, 1.14300000, 0.30480000, 0.14859000
5393, 1.21920000, 0.30480000, 0.14859000
5394, 1.29540000, 0.30480000, 0.14859000
5395, 1.37160000, 0.30480000, 0.14859000
5396, 1.44780000, 0.30480000, 0.14859000
5397, 1.52400000, 0.30480000, 0.14859000
5398, 0.00000000, 0.38100000, 0.14859000
5399, 0.07620000, 0.38100000, 0.14859000
5400, 0.15240000, 0.38100000, 0.14859000
5401, 0.22860000, 0.38100000, 0.14859000
5402, 0.30480000, 0.38100000, 0.14859000
5403, 0.38100000, 0.38100000, 0.14859000
5404, 0.45720000, 0.38100000, 0.14859000
5405, 0.53340000, 0.38100000, 0.14859000
5406, 0.60960000, 0.38100000, 0.14859000
5407, 0.68580000, 0.38100000, 0.14859000
5408, 0.76200000, 0.38100000, 0.14859000
5409, 0.83820000, 0.38100000, 0.14859000
5410, 0.91440000, 0.38100000, 0.14859000
5411, 0.99060000, 0.38100000, 0.14859000
5412, 1.06680000, 0.38100000, 0.14859000
5413, 1.14300000, 0.38100000, 0.14859000
5414, 1.21920000, 0.38100000, 0.14859000
5415, 1.29540000, 0.38100000, 0.14859000
5416, 1.37160000, 0.38100000, 0.14859000
5417, 1.44780000, 0.38100000, 0.14859000
5418, 1.52400000, 0.38100000, 0.14859000
5419, 0.00000000, 0.45720000, 0.14859000
5420, 0.07620000, 0.45720000, 0.14859000
5421, 0.15240000, 0.45720000, 0.14859000
5422, 0.22860000, 0.45720000, 0.14859000
5423, 0.30480000, 0.45720000, 0.14859000
5424, 0.38100000, 0.45720000, 0.14859000
5425, 0.45720000, 0.45720000, 0.14859000
5426, 0.53340000, 0.45720000, 0.14859000
5427, 0.60960000, 0.45720000, 0.14859000
5428, 0.68580000, 0.45720000, 0.14859000
5429, 0.76200000, 0.45720000, 0.14859000
5430, 0.83820000, 0.45720000, 0.14859000
5431, 0.91440000, 0.45720000, 0.14859000
5432, 0.99060000, 0.45720000, 0.14859000
5433, 1.06680000, 0.45720000, 0.14859000
5434, 1.14300000, 0.45720000, 0.14859000
5435, 1.21920000, 0.45720000, 0.14859000
5436, 1.29540000, 0.45720000, 0.14859000
5437, 1.37160000, 0.45720000, 0.14859000
5438, 1.44780000, 0.45720000, 0.14859000
5439, 1.52400000, 0.45720000, 0.14859000
5440, 0.00000000, 0.53340000, 0.14859000
5441, 0.07620000, 0.53340000, 0.14859000
5442, 0.15240000, 0.53340000, 0.14859000
5443, 0.22860000, 0.53340000, 0.14859000
5444, 0.30480000, 0.53340000, 0.14859000
5445, 0.38100000, 0.53340000, 0.14859000
5446, 0.45720000, 0.53340000, 0.14859000
5447, 0.53340000, 0.53340000, 0.14859000
5448, 0.60960000, 0.53340000, 0.14859000
5449, 0.68580000, 0.53340000, 0.14859000
5450, 0.76200000, 0.53340000, 0.14859000
5451, 0.83820000, 0.53340000, 0.14859000
5452, 0.91440000, 0.53340000, 0.14859000
5453, 0.99060000, 0.53340000, 0.14859000
5454, 1.06680000, 0.53340000, 0.14859000
5455, 1.14300000, 0.53340000, 0.14859000
5456, 1.21920000, 0.53340000, 0.14859000
5457, 1.29540000, 0.53340000, 0.14859000
5458, 1.37160000, 0.53340000, 0.14859000
5459, 1.44780000, 0.53340000, 0.14859000
5460, 1.52400000, 0.53340000, 0.14859000
5461, 0.00000000, 0.60960000, 0.14859000
5462, 0.07620000, 0.60960000, 0.14859000
5463, 0.15240000, 0.60960000, 0.14859000
5464, 0.22860000, 0.60960000, 0.14859000
5465, 0.30480000, 0.60960000, 0.14859000
5466, 0.38100000, 0.60960000, 0.14859000
5467, 0.45720000, 0.60960000, 0.14859000
5468, 0.53340000, 0.60960000, 0.14859000
5469, 0.60960000, 0.60960000, 0.14859000
5470, 0.68580000, 0.60960000, 0.14859000
5471, 0.76200000, 0.60960000, 0.14859000
5472, 0.83820000, 0.60960000, 0.14859000
5473, 0.91440000, 0.60960000, 0.14859000
5474, 0.99060000, 0.60960000, 0.14859000
5475, 1.06680000, 0.60960000, 0.14859000
5476, 1.14300000, 0.60960000, 0.14859000
5477, 1.21920000, 0.60960000, 0.14859000
5478, 1.29540000, 0.60960000, 0.14859000
5479, 1.37160000, 0.60960000, 0.14859000
5480, 1.44780000, 0.60960000, 0.14859000
5481, 1.52400000, 0.60960000, 0.14859000
5482, 0.00000000, 0.68580000, 0.14859000
5483, 0.07620000, 0.68580000, 0.14859000
5484, 0.15240000, 0.68580000, 0.14859000
5485, 0.22860000, 0.68580000, 0.14859000
5486, 0.30480000, 0.68580000, 0.14859000
5487, 0.38100000, 0.68580000, 0.14859000
5488, 0.45720000, 0.68580000, 0.14859000
5489, 0.53340000, 0.68580000, 0.14859000
5490, 0.60960000, 0.68580000, 0.14859000
5491, 0.68580000, 0.68580000, 0.14859000
5492, 0.76200000, 0.68580000, 0.14859000
5493, 0.83820000, 0.68580000, 0.14859000
5494, 0.91440000, 0.68580000, 0.14859000
5495, 0.99060000, 0.68580000, 0.14859000
5496, 1.06680000, 0.68580000, 0.14859000
5497, 1.14300000, 0.68580000, 0.14859000
5498, 1.21920000, 0.68580000, 0.14859000
5499, 1.29540000, 0.68580000, 0.14859000
5500, 1.37160000, 0.68580000, 0.14859000
5501, 1.44780000, 0.68580000, 0.14859000
5502, 1.52400000, 0.68580000, 0.14859000
5503, 0.00000000, 0.76200000, 0.14859000
5504, 0.07620000, 0.76200000, 0.14859000
5505, 0.15240000, 0.76200000, 0.14859000
5506, 0.22860000, 0.76200000, 0.14859000
5507, 0.30480000, 0.76200000, 0.14859000
5508, 0.38100000, 0.76200000, 0.14859000
5509, 0.45720000, 0.76200000, 0.14859000
5510, 0.53340000, 0.76200000, 0.14859000
5511, 0.60960000, 0.76200000, 0.14859000
5512, 0.68580000, 0.76200000, 0.14859000
5513, 0.76200000, 0.76200000, 0.14859000
5514, 0.83820000, 0.76200000, 0.14859000
5515, 0.91440000, 0.76200000, 0.14859000
5516, 0.99060000, 0.76200000, 0.14859000
5517, 1.06680000, 0.76200000, 0.14859000
5518, 1.14300000, 0.76200000, 0.14859000
5519, 1.21920000, 0.76200000, 0.14859000
5520, 1.29540000, 0.76200000, 0.14859000
5521, 1.37160000, 0.76200000, 0.14859000
5522, 1.44780000, 0.76200000, 0.14859000
5523, 1.52400000, 0.76200000, 0.14859000
5524, 0.00000000, 0.83820000, 0.14859000
5525, 0.07620000, 0.83820000, 0.14859000
5526, 0.15240000, 0.83820000, 0.14859000
5527, 0.22860000, 0.83820000, 0.14859000
5528, 0.30480000, 0.83820000, 0.14859000
5529, 0.38100000, 0.83820000, 0.14859000
5530, 0.45720000, 0.83820000, 0.14859000
5531, 0.53340000, 0.83820000, 0.14859000
5532, 0.60960000, 0.83820000, 0.14859000
5533, 0.68580000, 0.83820000, 0.14859000
5534, 0.76200000, 0.83820000, 0.14859000
5535, 0.83820000, 0.83820000, 0.14859000
5536, 0.91440000, 0.83820000, 0.14859000
5537, 0.99060000, 0.83820000, 0.14859000
5538, 1.06680000, 0.83820000, 0.14859000
5539, 1.14300000, 0.83820000, 0.14859000
5540, 1.21920000, 0.83820000, 0.14859000
5541, 1.29540000, 0.83820000, 0.14859000
5542, 1.37160000, 0.83820000, 0.14859000
5543, 1.44780000, 0.83820000, 0.14859000
5544, 1.52400000, 0.83820000, 0.14859000
5545, 0.00000000, 0.91440000, 0.14859000
5546, 0.07620000, 0.91440000, 0.14859000
5547, 0.15240000, 0.91440000, 0.14859000
5548, 0.22860000, 0.91440000, 0.14859000
5549, 0.30480000, 0.91440000, 0.14859000
5550, 0.38100000, 0.91440000, 0.14859000
5551, 0.45720000, 0.91440000, 0.14859000
5552, 0.53340000, 0.91440000, 0.14859000
5553, 0.60960000, 0.91440000, 0.14859000
5554, 0.68580000, 0.91440000, 0.14859000
5555, 0.76200000, 0.91440000, 0.14859000
5556, 0.83820000, 0.91440000, 0.14859000
5557, 0.91440000, 0.91440000, 0.14859000
5558, 0.99060000, 0.91440000, 0.14859000
5559, 1.06680000, 0.91440000, 0.14859000
5560, 1.14300000, 0.91440000, 0.14859000
5561, 1.21920000, 0.91440000, 0.14859000
5562, 1.29540000, 0.91440000, 0.14859000
5563, 1.37160000, 0.91440000, 0.14859000
5564, 1.44780000, 0.91440000, 0.14859000
5565, 1.52400000, 0.91440000, 0.14859000
5566, 0.00000000, 0.99060000, 0.14859000
5567, 0.07620000, 0.99060000, 0.14859000
5568, 0.15240000, 0.99060000, 0.14859000
5569, 0.22860000, 0.99060000, 0.14859000
5570, 0.30480000, 0.99060000, 0.14859000
5571, 0.38100000, 0.99060000, 0.14859000
5572, 0.45720000, 0.99060000, 0.14859000
5573, 0.53340000, 0.99060000, 0.14859000
5574, 0.60960000, 0.99060000, 0.14859000
5575, 0.68580000, 0.99060000, 0.14859000
5576, 0.76200000, 0.99060000, 0.14859000
5577, 0.83820000, 0.99060000, 0.14859000
5578, 0.91440000, 0.99060000, 0.14859000
5579, 0.99060000, 0.99060000, 0.14859000
5580, 1.06680000, 0.99060000, 0.14859000
5581, 1.14300000, 0.99060000, 0.14859000
5582, 1.21920000, 0.99060000, 0.14859000
5583, 1.29540000, 0.99060000, 0.14859000
5584, 1.37160000, 0.99060000, 0.14859000
5585, 1.44780000, 0.99060000, 0.14859000
5586, 1.52400000, 0.99060000, 0.14859000
5587, 0.00000000, 1.06680000, 0.14859000
5588, 0.07620000, 1.06680000, 0.14859000
5589, 0.15240000, 1.06680000, 0.14859000
5590, 0.22860000, 1.06680000, 0.14859000
5591, 0.30480000, 1.06680000, 0.14859000
5592, 0.38100000, 1.06680000, 0.14859000
5593, 0.45720000, 1.06680000, 0.14859000
5594, 0.53340000, 1.06680000, 0.14859000
5595, 0.60960000, 1.06680000, 0.14859000
5596, 0.68580000, 1.06680000, 0.14859000
5597, 0.76200000, 1.06680000, 0.14859000
5598, 0.83820000, 1.06680000, 0.14859000
5599, 0.91440000, 1.06680000, 0.14859000
5600, 0.99060000, 1.06680000, 0.14859000
5601, 1.06680000, 1.06680000, 0.14859000
5602, 1.14300000, 1.06680000, 0.14859000
5603, 1.21920000, 1.06680000, 0.14859000
5604, 1.29540000, 1.06680000, 0.14859000
5605, 1.37160000, 1.06680000, 0.14859000
5606, 1.44780000, 1.06680000, 0.14859000
5607, 1.52400000, 1.06680000, 0.14859000
5608, 0.00000000, 1.14300000, 0.14859000
5609, 0.07620000, 1.14300000, 0.14859000
5610, 0.15240000, 1.14300000, 0.14859000
5611, 0.22860000, 1.14300000, 0.14859000
5612, 0.30480000, 1.14300000, 0.14859000
5613, 0.38100000, 1.14300000, 0.14859000
5614, 0.45720000, 1.14300000, 0.14859000
5615, 0.53340000, 1.14300000, 0.14859000
5616, 0.60960000, 1.14300000, 0.14859000
5617, 0.68580000, 1.14300000, 0.14859000
5618, 0.76200000, 1.14300000, 0.14859000
5619, 0.83820000, 1.14300000, 0.14859000
5620, 0.91440000, 1.14300000, 0.14859000
5621, 0.99060000, 1.14300000, 0.14859000
5622, 1.06680000, 1.14300000, 0.14859000
5623, 1.14300000, 1.14300000, 0.14859000
5624, 1.21920000, 1.14300000, 0.14859000
5625, 1.29540000, 1.14300000, 0.14859000
5626, 1.37160000, 1.14300000, 0.14859000
5627, 1.44780000, 1.14300000, 0.14859000
5628, 1.52400000, 1.14300000, 0.14859000
5629, 0.00000000, 1.21920000, 0.14859000
5630, 0.07620000, 1.21920000, 0.14859000
5631, 0.15240000, 1.21920000, 0.14859000
5632, 0.22860000, 1.21920000, 0.14859000
5633, 0.30480000, 1.21920000, 0.14859000
5634, 0.38100000, 1.21920000, 0.14859000
5635, 0.45720000, 1.21920000, 0.14859000
5636, 0.53340000, 1.21920000, 0.14859000
5637, 0.60960000, 1.21920000, 0.14859000
5638, 0.68580000, 1.21920000, 0.14859000
5639, 0.76200000, 1.21920000, 0.14859000
5640, 0.83820000, 1.21920000, 0.14859000
5641, 0.91440000, 1.21920000, 0.14859000
5642, 0.99060000, 1.21920000, 0.14859000
5643, 1.06680000, 1.21920000, 0.14859000
5644, 1.14300000, 1.21920000, 0.14859000
5645, 1.21920000, 1.21920000, 0.14859000
5646, 1.29540000, 1.21920000, 0.14859000
5647, 1.37160000, 1.21920000, 0.14859000
5648, 1.44780000, 1.21920000, 0.14859000
5649, 1.52400000, 1.21920000, 0.14859000
5650, 0.00000000, 1.29540000, 0.14859000
5651, 0.07620000, 1.29540000, 0.14859000
5652, 0.15240000, 1.29540000, 0.14859000
5653, 0.22860000, 1.29540000, 0.14859000
5654, 0.30480000, 1.29540000, 0.14859000
5655, 0.38100000, 1.29540000, 0.14859000
5656, 0.45720000, 1.29540000, 0.14859000
5657, 0.53340000, 1.29540000, 0.14859000
5658, 0.60960000, 1.29540000, 0.14859000
5659, 0.68580000, 1.29540000, 0.14859000
5660, 0.76200000, 1.29540000, 0.14859000
5661, 0.83820000, 1.29540000, 0.14859000
5662, 0.91440000, 1.29540000, 0.14859000
5663, 0.99060000, 1.29540000, 0.14859000
5664, 1.06680000, 1.29540000, 0.14859000
5665, 1.14300000, 1.29540000, 0.14859000
5666, 1.21920000, 1.29540000, 0.14859000
5667, 1.29540000, 1.29540000, 0.14859000
5668, 1.37160000, 1.29540000, 0.14859000
5669, 1.44780000, 1.29540000, 0.14859000
5670, 1.52400000, 1.29540000, 0.14859000
5671, 0.00000000, 1.37160000, 0.14859000
5672, 0.07620000, 1.37160000, 0.14859000
5673, 0.15240000, 1.37160000, 0.14859000
5674, 0.22860000, 1.37160000, 0.14859000
5675, 0.30480000, 1.37160000, 0.14859000
5676, 0.38100000, 1.37160000, 0.14859000
5677, 0.45720000, 1.37160000, 0.14859000
5678, 0.53340000, 1.37160000, 0.14859000
5679, 0.60960000, 1.37160000, 0.14859000
5680, 0.68580000, 1.37160000, 0.14859000
5681, 0.76200000, 1.37160000, 0.14859000
5682, 0.83820000, 1.37160000, 0.14859000
5683, 0.91440000, 1.37160000, 0.14859000
5684, 0.99060000, 1.37160000, 0.14859000
5685, 1.06680000, 1.37160000, 0.14859000
5686, 1.14300000, 1.37160000, 0.14859000
5687, 1.21920000, 1.37160000, 0.14859000
5688, 1.29540000, 1.37160000, 0.14859000
5689, 1.37160000, 1.37160000, 0.14859000
5690, 1.44780000, 1.37160000, 0.14859000
5691, 1.52400000, 1.37160000, 0.14859000
5692, 0.00000000, 1.44780000, 0.14859000
5693, 0.07620000, 1.44780000, 0.14859000
5694, 0.15240000, 1.44780000, 0.14859000
5695, 0.22860000, 1.44780000, 0.14859000
5696, 0.30480000, 1.44780000, 0.14859000
5697, 0.38100000, 1.44780000, 0.14859000
5698, 0.45720000, 1.44780000, 0.14859000
5699, 0.53340000, 1.44780000, 0.14859000
5700, 0.60960000, 1.44780000, 0.14859000
5701, 0.68580000, 1.44780000, 0.14859000
5702, 0.76200000, 1.44780000, 0.14859000
5703, 0.83820000, 1.44780000, 0.14859000
5704, 0.91440000, 1.44780000, 0.14859000
5705, 0.99060000, 1.44780000, 0.14859000
5706, 1.06680000, 1.44780000, 0.14859000
5707, 1.14300000, 1.44780000, 0.14859000
5708, 1.21920000, 1.44780000, 0.14859000
5709, 1.29540000, 1.44780000, 0.14859000
5710, 1.37160000, 1.44780000, 0.14859000
5711, 1.44780000, 1.44780000, 0.14859000
5712, 1.52400000, 1.44780000, 0.14859000
5713, 0.00000000, 1.52400000, 0.14859000
5714, 0.07620000, 1.52400000, 0.14859000
5715, 0.15240000, 1.52400000, 0.14859000
5716, 0.22860000, 1.52400000, 0.14859000
5717, 0.30480000, 1.52400000, 0.14859000
5718, 0.38100000, 1.52400000, 0.14859000
5719, 0.45720000, 1.52400000, 0.14859000
5720, 0.53340000, 1.52400000, 0.14859000
5721, 0.60960000, 1.52400000, 0.14859000
5722, 0.68580000, 1.52400000, 0.14859000
5723, 0.76200000, 1.52400000, 0.14859000
5724, 0.83820000, 1.52400000, 0.14859000
5725, 0.91440000, 1.52400000, 0.14859000
5726, 0.99060000, 1.52400000, 0.14859000
5727, 1.06680000, 1.52400000, 0.14859000
5728, 1.14300000, 1.52400000, 0.14859000
5729, 1.21920000, 1.52400000, 0.14859000
5730, 1.29540000, 1.52400000, 0.14859000
5731, 1.37160000, 1.52400000, 0.14859000
5732, 1.44780000, 1.52400000, 0.14859000
5733, 1.52400000, 1.52400000, 0.14859000
5734, 0.00000000, 0.00000000, 0.14954250
5735, 0.07620000, 0.00000000, 0.14954250
5736, 0.15240000, 0.00000000, 0.14954250
5737, 0.22860000, 0.00000000, 0.14954250
5738, 0.30480000, 0.00000000, 0.14954250
5739, 0.38100000, 0.00000000, 0.14954250
5740, 0.45720000, 0.00000000, 0.14954250
5741, 0.53340000, 0.00000000, 0.14954250
5742, 0.60960000, 0.00000000, 0.14954250
5743, 0.68580000, 0.00000000, 0.14954250
5744, 0.76200000, 0.00000000, 0.14954250
5745, 0.83820000, 0.00000000, 0.14954250
5746, 0.91440000, 0.00000000, 0.14954250
5747, 0.99060000, 0.00000000, 0.14954250
5748, 1.06680000, 0.00000000, 0.14954250
5749, 1.14300000, 0.00000000, 0.14954250
5750, 1.21920000, 0.00000000, 0.14954250
5751, 1.29540000, 0.00000000, 0.14954250
5752, 1.37160000, 0.00000000, 0.14954250
5753, 1.44780000, 0.00000000, 0.14954250
5754, 1.52400000, 0.00000000, 0.14954250
5755, 0.00000000, 0.07620000, 0.14954250
5756, 0.07620000, 0.07620000, 0.14954250
5757, 0.15240000, 0.07620000, 0.14954250
5758, 0.22860000, 0.07620000, 0.14954250
5759, 0.30480000, 0.07620000, 0.14954250
5760, 0.38100000, 0.07620000, 0.14954250
5761, 0.45720000, 0.07620000, 0.14954250
5762, 0.53340000, 0.07620000, 0.14954250
5763, 0.60960000, 0.07620000, 0.14954250
5764, 0.68580000, 0.07620000, 0.14954250
5765, 0.76200000, 0.07620000, 0.14954250
5766, 0.83820000, 0.07620000, 0.14954250
5767, 0.91440000, 0.07620000, 0.14954250
5768, 0.99060000, 0.07620000, 0.14954250
5769, 1.06680000, 0.07620000, 0.14954250
5770, 1.14300000, 0.07620000, 0.14954250
5771, 1.21920000, 0.07620000, 0.14954250
5772, 1.29540000, 0.07620000, 0.14954250
5773, 1.37160000, 0.07620000, 0.14954250
5774, 1.44780000, 0.07620000, 0.14954250
5775, 1.52400000, 0.07620000, 0.14954250
5776, 0.00000000, 0.15240000, 0.14954250
5777, 0.07620000, 0.15240000, 0.14954250
5778, 0.15240000, 0.15240000, 0.14954250
5779, 0.22860000, 0.15240000, 0.14954250
5780, 0.30480000, 0.15240000, 0.14954250
5781, 0.38100000, 0.15240000, 0.14954250
5782, 0.45720000, 0.15240000, 0.14954250
5783, 0.53340000, 0.15240000, 0.14954250
5784, 0.60960000, 0.15240000, 0.14954250
5785, 0.68580000, 0.15240000, 0.14954250
5786, 0.76200000, 0.15240000, 0.14954250
5787, 0.83820000, 0.15240000, 0.14954250
5788, 0.91440000, 0.15240000, 0.14954250
5789, 0.99060000, 0.15240000, 0.14954250
5790, 1.06680000, 0.15240000, 0.14954250
5791, 1.14300000, 0.15240000, 0.14954250
5792, 1.21920000, 0.15240000, 0.14954250
5793, 1.29540000, 0.15240000, 0.14954250
5794, 1.37160000, 0.15240000, 0.14954250
5795, 1.44780000, 0.15240000, 0.14954250
5796, 1.52400000, 0.15240000, 0.14954250
5797, 0.00000000, 0.22860000, 0.14954250
5798, 0.07620000, 0.22860000, 0.14954250
5799, 0.15240000, 0.22860000, 0.14954250
5800, 0.22860000, 0.22860000, 0.14954250
5801, 0.30480000, 0.22860000, 0.14954250
5802, 0.38100000, 0.22860000, 0.14954250
5803, 0.45720000, 0.22860000, 0.14954250
5804, 0.53340000, 0.22860000, 0.14954250
5805, 0.60960000, 0.22860000, 0.14954250
5806, 0.68580000, 0.22860000, 0.14954250
5807, 0.76200000, 0.22860000, 0.14954250
5808, 0.83820000, 0.22860000, 0.14954250
5809, 0.91440000, 0.22860000, 0.14954250
5810, 0.99060000, 0.22860000, 0.14954250
5811, 1.06680000, 0.22860000, 0.14954250
5812, 1.14300000, 0.22860000, 0.14954250
5813, 1.21920000, 0.22860000, 0.14954250
5814, 1.29540000, 0.22860000, 0.14954250
5815, 1.37160000, 0.22860000, 0.14954250
5816, 1.44780000, 0.22860000, 0.14954250
5817, 1.52400000, 0.22860000, 0.14954250
5818, 0.00000000, 0.30480000, 0.14954250
5819, 0.07620000, 0.30480000, 0.14954250
5820, 0.15240000, 0.30480000, 0.14954250
5821, 0.22860000, 0.30480000, 0.14954250
5822, 0.30480000, 0.30480000, 0.14954250
5823, 0.38100000, 0.30480000, 0.14954250
5824, 0.45720000, 0.30480000, 0.14954250
5825, 0.53340000, 0.30480000, 0.14954250
5826, 0.60960000, 0.30480000, 0.14954250
5827, 0.68580000, 0.30480000, 0.14954250
5828, 0.76200000, 0.30480000, 0.14954250
5829, 0.83820000, 0.30480000, 0.14954250
5830, 0.91440000, 0.30480000, 0.14954250
5831, 0.99060000, 0.30480000, 0.14954250
5832, 1.06680000, 0.30480000, 0.14954250
5833, 1.14300000, 0.30480000, 0.14954250
5834, 1.21920000, 0.30480000, 0.14954250
5835, 1.29540000, 0.30480000, 0.14954250
5836, 1.37160000, 0.30480000, 0.14954250
5837, 1.44780000, 0.30480000, 0.14954250
5838, 1.52400000, 0.30480000, 0.14954250
5839, 0.00000000, 0.38100000, 0.14954250
5840, 0.07620000, 0.38100000, 0.14954250
5841, 0.15240000, 0.38100000, 0.14954250
5842, 0.22860000, 0.38100000, 0.14954250
5843, 0.30480000, 0.38100000, 0.14954250
5844, 0.38100000, 0.38100000, 0.14954250
5845, 0.45720000, 0.38100000, 0.14954250
5846, 0.53340000, 0.38100000, 0.14954250
5847, 0.60960000, 0.38100000, 0.14954250
5848, 0.68580000, 0.38100000, 0.14954250
5849, 0.76200000, 0.38100000, 0.14954250
5850, 0.83820000, 0.38100000, 0.14954250
5851, 0.91440000, 0.38100000, 0.14954250
5852, 0.99060000, 0.38100000, 0.14954250
5853, 1.06680000, 0.38100000, 0.14954250
5854, 1.14300000, 0.38100000, 0.14954250
5855, 1.21920000, 0.38100000, 0.14954250
5856, 1.29540000, 0.38100000, 0.14954250
5857, 1.37160000, 0.38100000, 0.14954250
5858, 1.44780000, 0.38100000, 0.14954250
5859, 1.52400000, 0.38100000, 0.14954250
5860, 0.00000000, 0.45720000, 0.14954250
5861, 0.07620000, 0.45720000, 0.14954250
5862, 0.15240000, 0.45720000, 0.14954250
5863, 0.22860000, 0.45720000, 0.14954250
5864, 0.30480000, 0.45720000, 0.14954250
5865, 0.38100000, 0.45720000, 0.14954250
5866, 0.45720000, 0.45720000, 0.14954250
5867, 0.53340000, 0.45720000, 0.14954250
5868, 0.60960000, 0.45720000, 0.14954250
5869, 0.68580000, 0.45720000, 0.14954250
5870, 0.76200000, 0.45720000, 0.14954250
5871, 0.83820000, 0.45720000, 0.14954250
5872, 0.91440000, 0.45720000, 0.14954250
5873, 0.99060000, 0.45720000, 0.14954250
5874, 1.06680000, 0.45720000, 0.14954250
5875, 1.14300000, 0.45720000, 0.14954250
5876, 1.21920000, 0.45720000, 0.14954250
5877, 1.29540000, 0.45720000, 0.14954250
5878, 1.37160000, 0.45720000, 0.14954250
5879, 1.44780000, 0.45720000, 0.14954250
5880, 1.52400000, 0.45720000, 0.14954250
5881, 0.00000000, 0.53340000, 0.14954250
5882, 0.07620000, 0.53340000, 0.14954250
5883, 0.15240000, 0.53340000, 0.14954250
5884, 0.22860000, 0.53340000, 0.14954250
5885, 0.30480000, 0.53340000, 0.14954250
5886, 0.38100000, 0.53340000, 0.14954250
5887, 0.45720000, 0.53340000, 0.14954250
5888, 0.53340000, 0.53340000, 0.14954250
5889, 0.60960000, 0.53340000, 0.14954250
5890, 0.68580000, 0.53340000, 0.14954250
5891, 0.76200000, 0.53340000, 0.14954250
5892, 0.83820000, 0.53340000, 0.14954250
5893, 0.91440000, 0.53340000, 0.14954250
5894, 0.99060000, 0.53340000, 0.14954250
5895, 1.06680000, 0.53340000, 0.14954250
5896, 1.14300000, 0.53340000, 0.14954250
5897, 1.21920000, 0.53340000, 0.14954250
5898, 1.29540000, 0.53340000, 0.14954250
5899, 1.37160000, 0.53340000, 0.14954250
5900, 1.44780000, 0.53340000, 0.14954250
5901, 1.52400000, 0.53340000, 0.14954250
5902, 0.00000000, 0.60960000, 0.14954250
5903, 0.07620000, 0.60960000, 0.14954250
5904, 0.15240000, 0.60960000, 0.14954250
5905, 0.22860000, 0.60960000, 0.14954250
5906, 0.30480000, 0.60960000, 0.14954250
5907, 0.38100000, 0.60960000, 0.14954250
5908, 0.45720000, 0.60960000, 0.14954250
5909, 0.53340000, 0.60960000, 0.14954250
5910, 0.60960000, 0.60960000, 0.14954250
5911, 0.68580000, 0.60960000, 0.14954250
5912, 0.76200000, 0.60960000, 0.14954250
5913, 0.83820000, 0.60960000, 0.14954250
5914, 0.91440000, 0.60960000, 0.14954250
5915, 0.99060000, 0.60960000, 0.14954250
5916, 1.06680000, 0.60960000, 0.14954250
5917, 1.14300000, 0.60960000, 0.14954250
5918, 1.21920000, 0.60960000, 0.14954250
5919, 1.29540000, 0.60960000, 0.14954250
5920, 1.37160000, 0.60960000, 0.14954250
5921, 1.44780000, 0.60960000, 0.14954250
5922, 1.52400000, 0.60960000, 0.14954250
5923, 0.00000000, 0.68580000, 0.14954250
5924, 0.07620000, 0.68580000, 0.14954250
5925, 0.15240000, 0.68580000, 0.14954250
5926, 0.22860000, 0.68580000, 0.14954250
5927, 0.30480000, 0.68580000, 0.14954250
5928, 0.38100000, 0.68580000, 0.14954250
5929, 0.45720000, 0.68580000, 0.14954250
5930, 0.53340000, 0.68580000, 0.14954250
5931, 0.60960000, 0.68580000, 0.14954250
5932, 0.68580000, 0.68580000, 0.14954250
5933, 0.76200000, 0.68580000, 0.14954250
5934, 0.83820000, 0.68580000, 0.14954250
5935, 0.91440000, 0.68580000, 0.14954250
5936, 0.99060000, 0.68580000, 0.14954250
5937, 1.06680000, 0.68580000, 0.14954250
5938, 1.14300000, 0.68580000, 0.14954250
5939, 1.21920000, 0.68580000, 0.14954250
5940, 1.29540000, 0.68580000, 0.14954250
5941, 1.37160000, 0.68580000, 0.14954250
5942, 1.44780000, 0.68580000, 0.14954250
5943, 1.52400000, 0.68580000, 0.14954250
5944, 0.00000000, 0.76200000, 0.14954250
5945, 0.07620000, 0.76200000, 0.14954250
5946, 0.15240000, 0.76200000, 0.14954250
5947, 0.22860000, 0.76200000, 0.14954250
5948, 0.30480000, 0.76200000, 0.14954250
5949, 0.38100000, 0.76200000, 0.14954250
5950, 0.45720000, 0.76200000, 0.14954250
5951, 0.53340000, 0.76200000, 0.14954250
5952, 0.60960000, 0.76200000, 0.14954250
5953, 0.68580000, 0.76200000, 0.14954250
5954, 0.76200000, 0.76200000, 0.14954250
5955, 0.83820000, 0.76200000, 0.14954250
5956, 0.91440000, 0.76200000, 0.14954250
5957, 0.99060000, 0.76200000, 0.14954250
5958, 1.06680000, 0.76200000, 0.14954250
5959, 1.14300000, 0.76200000, 0.14954250
5960, 1.21920000, 0.76200000, 0.14954250
5961, 1.29540000, 0.76200000, 0.14954250
5962, 1.37160000, 0.76200000, 0.14954250
5963, 1.44780000, 0.76200000, 0.14954250
5964, 1.52400000, 0.76200000, 0.14954250
5965, 0.00000000, 0.83820000, 0.14954250
5966, 0.07620000, 0.83820000, 0.14954250
5967, 0.15240000, 0.83820000, 0.14954250
5968, 0.22860000, 0.83820000, 0.14954250
5969, 0.30480000, 0.83820000, 0.14954250
5970, 0.38100000, 0.83820000, 0.14954250
5971, 0.45720000, 0.83820000, 0.14954250
5972, 0.53340000, 0.83820000, 0.14954250
5973, 0.60960000, 0.83820000, 0.14954250
5974, 0.68580000, 0.83820000, 0.14954250
5975, 0.76200000, 0.83820000, 0.14954250
5976, 0.83820000, 0.83820000, 0.14954250
5977, 0.91440000, 0.83820000, 0.14954250
5978, 0.99060000, 0.83820000, 0.14954250
5979, 1.06680000, 0.83820000, 0.14954250
5980, 1.14300000, 0.83820000, 0.14954250
5981, 1.21920000, 0.83820000, 0.14954250
5982, 1.29540000, 0.83820000, 0.14954250
5983, 1.37160000, 0.83820000, 0.14954250
5984, 1.44780000, 0.83820000, 0.14954250
5985, 1.52400000, 0.83820000, 0.14954250
5986, 0.00000000, 0.91440000, 0.14954250
5987, 0.07620000, 0.91440000, 0.14954250
5988, 0.15240000, 0.91440000, 0.14954250
5989, 0.22860000, 0.91440000, 0.14954250
5990, 0.30480000, 0.91440000, 0.14954250
5991, 0.38100000, 0.91440000, 0.14954250
5992, 0.45720000, 0.91440000, 0.14954250
5993, 0.53340000, 0.91440000, 0.14954250
5994, 0.60960000, 0.91440000, 0.14954250
5995, 0.68580000, 0.91440000, 0.14954250
5996, 0.76200000, 0.91440000, 0.14954250
5997, 0.83820000, 0.91440000, 0.14954250
5998, 0.91440000, 0.91440000, 0.14954250
5999, 0.99060000, 0.91440000, 0.14954250
6000, 1.06680000, 0.91440000, 0.14954250
6001, 1.14300000, 0.91440000, 0.14954250
6002, 1.21920000, 0.91440000, 0.14954250
6003, 1.29540000, 0.91440000, 0.14954250
6004, 1.37160000, 0.91440000, 0.14954250
6005, 1.44780000, 0.91440000, 0.14954250
6006, 1.52400000, 0.91440000, 0.14954250
6007, 0.00000000, 0.99060000, 0.14954250
6008, 0.07620000, 0.99060000, 0.14954250
6009, 0.15240000, 0.99060000, 0.14954250
6010, 0.22860000, 0.99060000, 0.14954250
6011, 0.30480000, 0.99060000, 0.14954250
6012, 0.38100000, 0.99060000, 0.14954250
6013, 0.45720000, 0.99060000, 0.14954250
6014, 0.53340000, 0.99060000, 0.14954250
6015, 0.60960000, 0.99060000, 0.14954250
6016, 0.68580000, 0.99060000, 0.14954250
6017, 0.76200000, 0.99060000, 0.14954250
6018, 0.83820000, 0.99060000, 0.14954250
6019, 0.91440000, 0.99060000, 0.14954250
6020, 0.99060000, 0.99060000, 0.14954250
6021, 1.06680000, 0.99060000, 0.14954250
6022, 1.14300000, 0.99060000, 0.14954250
6023, 1.21920000, 0.99060000, 0.14954250
6024, 1.29540000, 0.99060000, 0.14954250
6025, 1.37160000, 0.99060000, 0.14954250
6026, 1.44780000, 0.99060000, 0.14954250
6027, 1.52400000, 0.99060000, 0.14954250
6028, 0.00000000, 1.06680000, 0.14954250
6029, 0.07620000, 1.06680000, 0.14954250
6030, 0.15240000, 1.06680000, 0.14954250
6031, 0.22860000, 1.06680000, 0.14954250
6032, 0.30480000, 1.06680000, 0.14954250
6033, 0.38100000, 1.06680000, 0.14954250
6034, 0.45720000, 1.06680000, 0.14954250
6035, 0.53340000, 1.06680000, 0.14954250
6036, 0.60960000, 1.06680000, 0.14954250
6037, 0.68580000, 1.06680000, 0.14954250
6038, 0.76200000, 1.06680000, 0.14954250
6039, 0.83820000, 1.06680000, 0.14954250
6040, 0.91440000, 1.06680000, 0.14954250
6041, 0.99060000, 1.06680000, 0.14954250
6042, 1.06680000, 1.06680000, 0.14954250
6043, 1.14300000, 1.06680000, 0.14954250
6044, 1.21920000, 1.06680000, 0.14954250
6045, 1.29540000, 1.06680000, 0.14954250
6046, 1.37160000, 1.06680000, 0.14954250
6047, 1.44780000, 1.06680000, 0.14954250
6048, 1.52400000, 1.06680000, 0.14954250
6049, 0.00000000, 1.14300000, 0.14954250
6050, 0.07620000, 1.14300000, 0.14954250
6051, 0.15240000, 1.14300000, 0.14954250
6052, 0.22860000, 1.14300000, 0.14954250
6053, 0.30480000, 1.14300000, 0.14954250
6054, 0.38100000, 1.14300000, 0.14954250
6055, 0.45720000, 1.14300000, 0.14954250
6056, 0.53340000, 1.14300000, 0.14954250
6057, 0.60960000, 1.14300000, 0.14954250
6058, 0.68580000, 1.14300000, 0.14954250
6059, 0.76200000, 1.14300000, 0.14954250
6060, 0.83820000, 1.14300000, 0.14954250
6061, 0.91440000, 1.14300000, 0.14954250
6062, 0.99060000, 1.14300000, 0.14954250
6063, 1.06680000, 1.14300000, 0.14954250
6064, 1.14300000, 1.14300000, 0.14954250
6065, 1.21920000, 1.14300000, 0.14954250
6066, 1.29540000, 1.14300000, 0.14954250
6067, 1.37160000, 1.14300000, 0.14954250
6068, 1.44780000, 1.14300000, 0.14954250
6069, 1.52400000, 1.14300000, 0.14954250
6070, 0.00000000, 1.21920000, 0.14954250
6071, 0.07620000, 1.21920000, 0.14954250
6072, 0.15240000, 1.21920000, 0.14954250
6073, 0.22860000, 1.21920000, 0.14954250
6074, 0.30480000, 1.21920000, 0.14954250
6075, 0.38100000, 1.21920000, 0.14954250
6076, 0.45720000, 1.21920000, 0.14954250
6077, 0.53340000, 1.21920000, 0.14954250
6078, 0.60960000, 1.21920000, 0.14954250
6079, 0.68580000, 1.21920000, 0.14954250
6080, 0.76200000, 1.21920000, 0.14954250
6081, 0.83820000, 1.21920000, 0.14954250
6082, 0.91440000, 1.21920000, 0.14954250
6083, 0.99060000, 1.21920000, 0.14954250
6084, 1.06680000, 1.21920000, 0.14954250
6085, 1.14300000, 1.21920000, 0.14954250
6086, 1.21920000, 1.21920000, 0.14954250
6087, 1.29540000, 1.21920000, 0.14954250
6088, 1.37160000, 1.21920000, 0.14954250
6089, 1.44780000, 1.21920000, 0.14954250
6090, 1.52400000, 1.21920000, 0.14954250
6091, 0.00000000, 1.29540000, 0.14954250
6092, 0.07620000, 1.29540000, 0.14954250
6093, 0.15240000, 1.29540000, 0.14954250
6094, 0.22860000, 1.29540000, 0.14954250
6095, 0.30480000, 1.29540000, 0.14954250
6096, 0.38100000, 1.29540000, 0.14954250
6097, 0.45720000, 1.29540000, 0.14954250
6098, 0.53340000, 1.29540000, 0.14954250
6099, 0.60960000, 1.29540000, 0.14954250
6100, 0.68580000, 1.29540000, 0.14954250
6101, 0.76200000, 1.29540000, 0.14954250
6102, 0.83820000, 1.29540000, 0.14954250
6103, 0.91440000, 1.29540000, 0.14954250
6104, 0.99060000, 1.29540000, 0.14954250
6105, 1.06680000, 1.29540000, 0.14954250
6106, 1.14300000, 1.29540000, 0.14954250
6107, 1.21920000, 1.29540000, 0.14954250
6108, 1.29540000, 1.29540000, 0.14954250
6109, 1.37160000, 1.29540000, 0.14954250
6110, 1.44780000, 1.29540000, 0.14954250
6111, 1.52400000, 1.29540000, 0.14954250
6112, 0.00000000, 1.37160000, 0.14954250
6113, 0.07620000, 1.37160000, 0.14954250
6114, 0.15240000, 1.37160000, 0.14954250
6115, 0.22860000, 1.37160000, 0.14954250
6116, 0.30480000, 1.37160000, 0.14954250
6117, 0.38100000, 1.37160000, 0.14954250
6118, 0.45720000, 1.37160000, 0.14954250
6119, 0.53340000, 1.37160000, 0.14954250
6120, 0.60960000, 1.37160000, 0.14954250
6121, 0.68580000, 1.37160000, 0.14954250
6122, 0.76200000, 1.37160000, 0.14954250
6123, 0.83820000, 1.37160000, 0.14954250
6124, 0.91440000, 1.37160000, 0.14954250
6125, 0.99060000, 1.37160000, 0.14954250
6126, 1.06680000, 1.37160000, 0.14954250
6127, 1.14300000, 1.37160000, 0.14954250
6128, 1.21920000, 1.37160000, 0.14954250
6129, 1.29540000, 1.37160000, 0.14954250
6130, 1.37160000, 1.37160000, 0.14954250
6131, 1.44780000, 1.37160000, 0.14954250
6132, 1.52400000, 1.37160000, 0.14954250
6133, 0.00000000, 1.44780000, 0.14954250
6134, 0.07620000, 1.44780000, 0.14954250
6135, 0.15240000, 1.44780000, 0.14954250
6136, 0.22860000, 1.44780000, 0.14954250
6137, 0.30480000, 1.44780000, 0.14954250
6138, 0.38100000, 1.44780000, 0.14954250
6139, 0.45720000, 1.44780000, 0.14954250
6140, 0.53340000, 1.44780000, 0.14954250
6141, 0.60960000, 1.44780000, 0.14954250
6142, 0.68580000, 1.44780000, 0.14954250
6143, 0.76200000, 1.44780000, 0.14954250
6144, 0.83820000, 1.44780000, 0.14954250
6145, 0.91440000, 1.44780000, 0.14954250
6146, 0.99060000, 1.44780000, 0.14954250
6147, 1.06680000, 1.44780000, 0.14954250
6148, 1.14300000, 1.44780000, 0.14954250
6149, 1.21920000, 1.44780000, 0.14954250
6150, 1.29540000, 1.44780000, 0.14954250
6151, 1.37160000, 1.44780000, 0.14954250
6152, 1.44780000, 1.44780000, 0.14954250
6153, 1.52400000, 1.44780000, 0.14954250
6154, 0.00000000, 1.52400000, 0.14954250
6155, 0.07620000, 1.52400000, 0.14954250
6156, 0.15240000, 1.52400000, 0.14954250
6157, 0.22860000, 1.52400000, 0.14954250
6158, 0.30480000, 1.52400000, 0.14954250
6159, 0.38100000, 1.52400000, 0.14954250
6160, 0.45720000, 1.52400000, 0.14954250
6161, 0.53340000, 1.52400000, 0.14954250
6162, 0.60960000, 1.52400000, 0.14954250
6163, 0.68580000, 1.52400000, 0.14954250
6164, 0.76200000, 1.52400000, 0.14954250
6165, 0.83820000, 1.52400000, 0.14954250
6166, 0.91440000, 1.52400000, 0.14954250
6167, 0.99060000, 1.52400000, 0.14954250
6168, 1.06680000, 1.52400000, 0.14954250
6169, 1.14300000, 1.52400000, 0.14954250
6170, 1.21920000, 1.52400000, 0.14954250
6171, 1.29540000, 1.52400000, 0.14954250
6172, 1.37160000, 1.52400000, 0.14954250
6173, 1.44780000, 1.52400000, 0.14954250
6174, 1.52400000, 1.52400000, 0.14954250
6175, 0.00000000, 0.00000000, 0.15049500
6176, 0.07620000, 0.00000000, 0.15049500
6177, 0.15240000, 0.00000000, 0.15049500
6178, 0.22860000, 0.00000000, 0.15049500
6179, 0.30480000, 0.00000000, 0.15049500
6180, 0.38100000, 0.00000000, 0.15049500
6181, 0.45720000, 0.00000000, 0.15049500
6182, 0.53340000, 0.00000000, 0.15049500
6183, 0.60960000, 0.00000000, 0.15049500
6184, 0.68580000, 0.00000000, 0.15049500
6185, 0.76200000, 0.00000000, 0.15049500
6186, 0.83820000, 0.00000000, 0.15049500
6187, 0.91440000, 0.00000000, 0.15049500
6188, 0.99060000, 0.00000000, 0.15049500
6189, 1.06680000, 0.00000000, 0.15049500
6190, 1.14300000, 0.00000000, 0.15049500
6191, 1.21920000, 0.00000000, 0.15049500
6192, 1.29540000, 0.00000000, 0.15049500
6193, 1.37160000, 0.00000000, 0.15049500
6194, 1.44780000, 0.00000000, 0.15049500
6195, 1.52400000, 0.00000000, 0.15049500
6196, 0.00000000, 0.07620000, 0.15049500
6197, 0.07620000, 0.07620000, 0.15049500
6198, 0.15240000, 0.07620000, 0.15049500
6199, 0.22860000, 0.07620000, 0.15049500
6200, 0.30480000, 0.07620000, 0.15049500
6201, 0.38100000, 0.07620000, 0.15049500
6202, 0.45720000, 0.07620000, 0.15049500
6203, 0.53340000, 0.07620000, 0.15049500
6204, 0.60960000, 0.07620000, 0.15049500
6205, 0.68580000, 0.07620000, 0.15049500
6206, 0.76200000, 0.07620000, 0.15049500
6207, 0.83820000, 0.07620000, 0.15049500
6208, 0.91440000, 0.07620000, 0.15049500
6209, 0.99060000, 0.07620000, 0.15049500
6210, 1.06680000, 0.07620000, 0.15049500
6211, 1.14300000, 0.07620000, 0.15049500
6212, 1.21920000, 0.07620000, 0.15049500
6213, 1.29540000, 0.07620000, 0.15049500
6214, 1.37160000, 0.07620000, 0.15049500
6215, 1.44780000, 0.07620000, 0.15049500
6216, 1.52400000, 0.07620000, 0.15049500
6217, 0.00000000, 0.15240000, 0.15049500
6218, 0.07620000, 0.15240000, 0.15049500
6219, 0.15240000, 0.15240000, 0.15049500
6220, 0.22860000, 0.15240000, 0.15049500
6221, 0.30480000, 0.15240000, 0.15049500
6222, 0.38100000, 0.15240000, 0.15049500
6223, 0.45720000, 0.15240000, 0.15049500
6224, 0.53340000, 0.15240000, 0.15049500
6225, 0.60960000, 0.15240000, 0.15049500
6226, 0.68580000, 0.15240000, 0.15049500
6227, 0.76200000, 0.15240000, 0.15049500
6228, 0.83820000, 0.15240000, 0.15049500
6229, 0.91440000, 0.15240000, 0.15049500
6230, 0.99060000, 0.15240000, 0.15049500
6231, 1.06680000, 0.15240000, 0.15049500
6232, 1.14300000, 0.15240000, 0.15049500
6233, 1.21920000, 0.15240000, 0.15049500
6234, 1.29540000, 0.15240000, 0.15049500
6235, 1.37160000, 0.15240000, 0.15049500
6236, 1.44780000, 0.15240000, 0.15049500
6237, 1.52400000, 0.15240000, 0.15049500
6238, 0.00000000, 0.22860000, 0.15049500
6239, 0.07620000, 0.22860000, 0.15049500
6240, 0.15240000, 0.22860000, 0.15049500
6241, 0.22860000, 0.22860000, 0.15049500
6242, 0.30480000, 0.22860000, 0.15049500
6243, 0.38100000, 0.22860000, 0.15049500
6244, 0.45720000, 0.22860000, 0.15049500
6245, 0.53340000, 0.22860000, 0.15049500
6246, 0.60960000, 0.22860000, 0.15049500
6247, 0.68580000, 0.22860000, 0.15049500
6248, 0.76200000, 0.22860000, 0.15049500
6249, 0.83820000, 0.22860000, 0.15049500
6250, 0.91440000, 0.22860000, 0.15049500
6251, 0.99060000, 0.22860000, 0.15049500
6252, 1.06680000, 0.22860000, 0.15049500
6253, 1.14300000, 0.22860000, 0.15049500
6254, 1.21920000, 0.22860000, 0.15049500
6255, 1.29540000, 0.22860000, 0.15049500
6256, 1.37160000, 0.22860000, 0.15049500
6257, 1.44780000, 0.22860000, 0.15049500
6258, 1.52400000, 0.22860000, 0.15049500
6259, 0.00000000, 0.30480000, 0.15049500
6260, 0.07620000, 0.30480000, 0.15049500
6261, 0.15240000, 0.30480000, 0.15049500
6262, 0.22860000, 0.30480000, 0.15049500
6263, 0.30480000, 0.30480000, 0.15049500
6264, 0.38100000, 0.30480000, 0.15049500
6265, 0.45720000, 0.30480000, 0.15049500
6266, 0.53340000, 0.30480000, 0.15049500
6267, 0.60960000, 0.30480000, 0.15049500
6268, 0.68580000, 0.30480000, 0.15049500
6269, 0.76200000, 0.30480000, 0.15049500
6270, 0.83820000, 0.30480000, 0.15049500
6271, 0.91440000, 0.30480000, 0.15049500
6272, 0.99060000, 0.30480000, 0.15049500
6273, 1.06680000, 0.30480000, 0.15049500
6274, 1.14300000, 0.30480000, 0.15049500
6275, 1.21920000, 0.30480000, 0.15049500
6276, 1.29540000, 0.30480000, 0.15049500
6277, 1.37160000, 0.30480000, 0.15049500
6278, 1.44780000, 0.30480000, 0.15049500
6279, 1.52400000, 0.30480000, 0.15049500
6280, 0.00000000, 0.38100000, 0.15049500
6281, 0.07620000, 0.38100000, 0.15049500
6282, 0.15240000, 0.38100000, 0.15049500
6283, 0.22860000, 0.38100000, 0.15049500
6284, 0.30480000, 0.38100000, 0.15049500
6285, 0.38100000, 0.38100000, 0.15049500
6286, 0.45720000, 0.38100000, 0.15049500
6287, 0.53340000, 0.38100000, 0.15049500
6288, 0.60960000, 0.38100000, 0.15049500
6289, 0.68580000, 0.38100000, 0.15049500
6290, 0.76200000, 0.38100000, 0.15049500
6291, 0.83820000, 0.38100000, 0.15049500
6292, 0.91440000, 0.38100000, 0.15049500
6293, 0.99060000, 0.38100000, 0.15049500
6294, 1.06680000, 0.38100000, 0.15049500
6295, 1.14300000, 0.38100000, 0.15049500
6296, 1.21920000, 0.38100000, 0.15049500
6297, 1.29540000, 0.38100000, 0.15049500
6298, 1.37160000, 0.38100000, 0.15049500
6299, 1.44780000, 0.38100000, 0.15049500
6300, 1.52400000, 0.38100000, 0.15049500
6301, 0.00000000, 0.45720000, 0.15049500
6302, 0.07620000, 0.45720000, 0.15049500
6303, 0.15240000, 0.45720000, 0.15049500
6304, 0.22860000, 0.45720000, 0.15049500
6305, 0.30480000, 0.45720000, 0.15049500
6306, 0.38100000, 0.45720000, 0.15049500
6307, 0.45720000, 0.45720000, 0.15049500
6308, 0.53340000, 0.45720000, 0.15049500
6309, 0.60960000, 0.45720000, 0.15049500
6310, 0.68580000, 0.45720000, 0.15049500
6311, 0.76200000, 0.45720000, 0.15049500
6312, 0.83820000, 0.45720000, 0.15049500
6313, 0.91440000, 0.45720000, 0.15049500
6314, 0.99060000, 0.45720000, 0.15049500
6315, 1.06680000, 0.45720000, 0.15049500
6316, 1.14300000, 0.45720000, 0.15049500
6317, 1.21920000, 0.45720000, 0.15049500
6318, 1.29540000, 0.45720000, 0.15049500
6319, 1.37160000, 0.45720000, 0.15049500
6320, 1.44780000, 0.45720000, 0.15049500
6321, 1.52400000, 0.45720000, 0.15049500
6322, 0.00000000, 0.53340000, 0.15049500
6323, 0.07620000, 0.53340000, 0.15049500
6324, 0.15240000, 0.53340000, 0.15049500
6325, 0.22860000, 0.53340000, 0.15049500
6326, 0.30480000, 0.53340000, 0.15049500
6327, 0.38100000, 0.53340000, 0.15049500
6328, 0.45720000, 0.53340000, 0.15049500
6329, 0.53340000, 0.53340000, 0.15049500
6330, 0.60960000, 0.53340000, 0.15049500
6331, 0.68580000, 0.53340000, 0.15049500
6332, 0.76200000, 0.53340000, 0.15049500
6333, 0.83820000, 0.53340000, 0.15049500
6334, 0.91440000, 0.53340000, 0.15049500
6335, 0.99060000, 0.53340000, 0.15049500
6336, 1.06680000, 0.53340000, 0.15049500
6337, 1.14300000, 0.53340000, 0.15049500
6338, 1.21920000, 0.53340000, 0.15049500
6339, 1.29540000, 0.53340000, 0.15049500
6340, 1.37160000, 0.53340000, 0.15049500
6341, 1.44780000, 0.53340000, 0.15049500
6342, 1.52400000, 0.53340000, 0.15049500
6343, 0.00000000, 0.60960000, 0.15049500
6344, 0.07620000, 0.60960000, 0.15049500
6345, 0.15240000, 0.60960000, 0.15049500
6346, 0.22860000, 0.60960000, 0.15049500
6347, 0.30480000, 0.60960000, 0.15049500
6348, 0.38100000, 0.60960000, 0.15049500
6349, 0.45720000, 0.60960000, 0.15049500
6350, 0.53340000, 0.60960000, 0.15049500
6351, 0.60960000, 0.60960000, 0.15049500
6352, 0.68580000, 0.60960000, 0.15049500
6353, 0.76200000, 0.60960000, 0.15049500
6354, 0.83820000, 0.60960000, 0.15049500
6355, 0.91440000, 0.60960000, 0.15049500
6356, 0.99060000, 0.60960000, 0.15049500
6357, 1.06680000, 0.60960000, 0.15049500
6358, 1.14300000, 0.60960000, 0.15049500
6359, 1.21920000, 0.60960000, 0.15049500
6360, 1.29540000, 0.60960000, 0.15049500
6361, 1.37160000, 0.60960000, 0.15049500
6362, 1.44780000, 0.60960000, 0.15049500
6363, 1.52400000, 0.60960000, 0.15049500
6364, 0.00000000, 0.68580000, 0.15049500
6365, 0.07620000, 0.68580000, 0.15049500
6366, 0.15240000, 0.68580000, 0.15049500
6367, 0.22860000, 0.68580000, 0.15049500
6368, 0.30480000, 0.68580000, 0.15049500
6369, 0.38100000, 0.68580000, 0.15049500
6370, 0.45720000, 0.68580000, 0.15049500
6371, 0.53340000, 0.68580000, 0.15049500
6372, 0.60960000, 0.68580000, 0.15049500
6373, 0.68580000, 0.68580000, 0.15049500
6374, 0.76200000, 0.68580000, 0.15049500
6375, 0.83820000, 0.68580000, 0.15049500
6376, 0.91440000, 0.68580000, 0.15049500
6377, 0.99060000, 0.68580000, 0.15049500
6378, 1.06680000, 0.68580000, 0.15049500
6379, 1.14300000, 0.68580000, 0.15049500
6380, 1.21920000, 0.68580000, 0.15049500
6381, 1.29540000, 0.68580000, 0.15049500
6382, 1.37160000, 0.68580000, 0.15049500
6383, 1.44780000, 0.68580000, 0.15049500
6384, 1.52400000, 0.68580000, 0.15049500
6385, 0.00000000, 0.76200000, 0.15049500
6386, 0.07620000, 0.76200000, 0.15049500
6387, 0.15240000, 0.76200000, 0.15049500
6388, 0.22860000, 0.76200000, 0.15049500
6389, 0.30480000, 0.76200000, 0.15049500
6390, 0.38100000, 0.76200000, 0.15049500
6391, 0.45720000, 0.76200000, 0.15049500
6392, 0.53340000, 0.76200000, 0.15049500
6393, 0.60960000, 0.76200000, 0.15049500
6394, 0.68580000, 0.76200000, 0.15049500
6395, 0.76200000, 0.76200000, 0.15049500
6396, 0.83820000, 0.76200000, 0.15049500
6397, 0.91440000, 0.76200000, 0.15049500
6398, 0.99060000, 0.76200000, 0.15049500
6399, 1.06680000, 0.76200000, 0.15049500
6400, 1.14300000, 0.76200000, 0.15049500
6401, 1.21920000, 0.76200000, 0.15049500
6402, 1.29540000, 0.76200000, 0.15049500
6403, 1.37160000, 0.76200000, 0.15049500
6404, 1.44780000, 0.76200000, 0.15049500
6405, 1.52400000, 0.76200000, 0.15049500
6406, 0.00000000, 0.83820000, 0.15049500
6407, 0.07620000, 0.83820000, 0.15049500
6408, 0.15240000, 0.83820000, 0.15049500
6409, 0.22860000, 0.83820000, 0.15049500
6410, 0.30480000, 0.83820000, 0.15049500
6411, 0.38100000, 0.83820000, 0.15049500
6412, 0.45720000, 0.83820000, 0.15049500
6413, 0.53340000, 0.83820000, 0.15049500
6414, 0.60960000, 0.83820000, 0.15049500
6415, 0.68580000, 0.83820000, 0.15049500
6416, 0.76200000, 0.83820000, 0.15049500
6417, 0.83820000, 0.83820000, 0.15049500
6418, 0.91440000, 0.83820000, 0.15049500
6419, 0.99060000, 0.83820000, 0.15049500
6420, 1.06680000, 0.83820000, 0.15049500
6421, 1.14300000, 0.83820000, 0.15049500
6422, 1.21920000, 0.83820000, 0.15049500
6423, 1.29540000, 0.83820000, 0.15049500
6424, 1.37160000, 0.83820000, 0.15049500
6425, 1.44780000, 0.83820000, 0.15049500
6426, 1.52400000, 0.83820000, 0.15049500
6427, 0.00000000, 0.91440000, 0.15049500
6428, 0.07620000, 0.91440000, 0.15049500
6429, 0.15240000, 0.91440000, 0.15049500
6430, 0.22860000, 0.91440000, 0.15049500
6431, 0.30480000, 0.91440000, 0.15049500
6432, 0.38100000, 0.91440000, 0.15049500
6433, 0.45720000, 0.91440000, 0.15049500
6434, 0.53340000, 0.91440000, 0.15049500
6435, 0.60960000, 0.91440000, 0.15049500
6436, 0.68580000, 0.91440000, 0.15049500
6437, 0.76200000, 0.91440000, 0.15049500
6438, 0.83820000, 0.91440000, 0.15049500
6439, 0.91440000, 0.91440000, 0.15049500
6440, 0.99060000, 0.91440000, 0.15049500
6441, 1.06680000, 0.91440000, 0.15049500
6442, 1.14300000, 0.91440000, 0.15049500
6443, 1.21920000, 0.91440000, 0.15049500
6444, 1.29540000, 0.91440000, 0.15049500
6445, 1.37160000, 0.91440000, 0.15049500
6446, 1.44780000, 0.91440000, 0.15049500
6447, 1.52400000, 0.91440000, 0.15049500
6448, 0.00000000, 0.99060000, 0.15049500
6449, 0.07620000, 0.99060000, 0.15049500
6450, 0.15240000, 0.99060000, 0.15049500
6451, 0.22860000, 0.99060000, 0.15049500
6452, 0.30480000, 0.99060000, 0.15049500
6453, 0.38100000, 0.99060000, 0.15049500
6454, 0.45720000, 0.99060000, 0.15049500
6455, 0.53340000, 0.99060000, 0.15049500
6456, 0.60960000, 0.99060000, 0.15049500
6457, 0.68580000, 0.99060000, 0.15049500
6458, 0.76200000, 0.99060000, 0.15049500
6459, 0.83820000, 0.99060000, 0.15049500
6460, 0.91440000, 0.99060000, 0.15049500
6461, 0.99060000, 0.99060000, 0.15049500
6462, 1.06680000, 0.99060000, 0.15049500
6463, 1.14300000, 0.99060000, 0.15049500
6464, 1.21920000, 0.99060000, 0.15049500
6465, 1.29540000, 0.99060000, 0.15049500
6466, 1.37160000, 0.99060000, 0.15049500
6467, 1.44780000, 0.99060000, 0.15049500
6468, 1.52400000, 0.99060000, 0.15049500
6469, 0.00000000, 1.06680000, 0.15049500
6470, 0.07620000, 1.06680000, 0.15049500
6471, 0.15240000, 1.06680000, 0.15049500
6472, 0.22860000, 1.06680000, 0.15049500
6473, 0.30480000, 1.06680000, 0.15049500
6474, 0.38100000, 1.06680000, 0.15049500
6475, 0.45720000, 1.06680000, 0.15049500
6476, 0.53340000, 1.06680000, 0.15049500
6477, 0.60960000, 1.06680000, 0.15049500
6478, 0.68580000, 1.06680000, 0.15049500
6479, 0.76200000, 1.06680000, 0.15049500
6480, 0.83820000, 1.06680000, 0.15049500
6481, 0.91440000, 1.06680000, 0.15049500
6482, 0.99060000, 1.06680000, 0.15049500
6483, 1.06680000, 1.06680000, 0.15049500
6484, 1.14300000, 1.06680000, 0.15049500
6485, 1.21920000, 1.06680000, 0.15049500
6486, 1.29540000, 1.06680000, 0.15049500
6487, 1.37160000, 1.06680000, 0.15049500
6488, 1.44780000, 1.06680000, 0.15049500
6489, 1.52400000, 1.06680000, 0.15049500
6490, 0.00000000, 1.14300000, 0.15049500
6491, 0.07620000, 1.14300000, 0.15049500
6492, 0.15240000, 1.14300000, 0.15049500
6493, 0.22860000, 1.14300000, 0.15049500
6494, 0.30480000, 1.14300000, 0.15049500
6495, 0.38100000, 1.14300000, 0.15049500
6496, 0.45720000, 1.14300000, 0.15049500
6497, 0.53340000, 1.14300000, 0.15049500
6498, 0.60960000, 1.14300000, 0.15049500
6499, 0.68580000, 1.14300000, 0.15049500
6500, 0.76200000, 1.14300000, 0.15049500
6501, 0.83820000, 1.14300000, 0.15049500
6502, 0.91440000, 1.14300000, 0.15049500
6503, 0.99060000, 1.14300000, 0.15049500
6504, 1.06680000, 1.14300000, 0.15049500
6505, 1.14300000, 1.14300000, 0.15049500
6506, 1.21920000, 1.14300000, 0.15049500
6507, 1.29540000, 1.14300000, 0.15049500
6508, 1.37160000, 1.14300000, 0.15049500
6509, 1.44780000, 1.14300000, 0.15049500
6510, 1.52400000, 1.14300000, 0.15049500
6511, 0.00000000, 1.21920000, 0.15049500
6512, 0.07620000, 1.21920000, 0.15049500
6513, 0.15240000, 1.21920000, 0.15049500
6514, 0.22860000, 1.21920000, 0.15049500
6515, 0.30480000, 1.21920000, 0.15049500
6516, 0.38100000, 1.21920000, 0.15049500
6517, 0.45720000, 1.21920000, 0.15049500
6518, 0.53340000, 1.21920000, 0.15049500
6519, 0.60960000, 1.21920000, 0.15049500
6520, 0.68580000, 1.21920000, 0.15049500
6521, 0.76200000, 1.21920000, 0.15049500
6522, 0.83820000, 1.21920000, 0.15049500
6523, 0.91440000, 1.21920000, 0.15049500
6524, 0.99060000, 1.21920000, 0.15049500
6525, 1.06680000, 1.21920000, 0.15049500
6526, 1.14300000, 1.21920000, 0.15049500
6527, 1.21920000, 1.21920000, 0.15049500
6528, 1.29540000, 1.21920000, 0.15049500
6529, 1.37160000, 1.21920000, 0.15049500
6530, 1.44780000, 1.21920000, 0.15049500
6531, 1.52400000, 1.21920000, 0.15049500
6532, 0.00000000, 1.29540000, 0.15049500
6533, 0.07620000, 1.29540000, 0.15049500
6534, 0.15240000, 1.29540000, 0.15049500
6535, 0.22860000, 1.29540000, 0.15049500
6536, 0.30480000, 1.29540000, 0.15049500
6537, 0.38100000, 1.29540000, 0.15049500
6538, 0.45720000, 1.29540000, 0.15049500
6539, 0.53340000, 1.29540000, 0.15049500
6540, 0.60960000, 1.29540000, 0.15049500
6541, 0.68580000, 1.29540000, 0.15049500
6542, 0.76200000, 1.29540000, 0.15049500
6543, 0.83820000, 1.29540000, 0.15049500
6544, 0.91440000, 1.29540000, 0.15049500
6545, 0.99060000, 1.29540000, 0.15049500
6546, 1.06680000, 1.29540000, 0.15049500
6547, 1.14300000, 1.29540000, 0.15049500
6548, 1.21920000, 1.29540000, 0.15049500
6549, 1.29540000, 1.29540000, 0.15049500
6550, 1.37160000, 1.29540000, 0.15049500
6551, 1.44780000, 1.29540000, 0.15049500
6552, 1.52400000, 1.29540000, 0.15049500
6553, 0.00000000, 1.37160000, 0.15049500
6554, 0.07620000, 1.37160000, 0.15049500
6555, 0.15240000, 1.37160000, 0.15049500
6556, 0.22860000, 1.37160000, 0.15049500
6557, 0.30480000, 1.37160000, 0.15049500
6558, 0.38100000, 1.37160000, 0.15049500
6559, 0.45720000, 1.37160000, 0.15049500
6560, 0.53340000, 1.37160000, 0.15049500
6561, 0.60960000, 1.37160000, 0.15049500
6562, 0.68580000, 1.37160000, 0.15049500
6563, 0.76200000, 1.37160000, 0.15049500
6564, 0.83820000, 1.37160000, 0.15049500
6565, 0.91440000, 1.37160000, 0.15049500
6566, 0.99060000, 1.37160000, 0.15049500
6567, 1.06680000, 1.37160000, 0.15049500
6568, 1.14300000, 1.37160000, 0.15049500
6569, 1.21920000, 1.37160000, 0.15049500
6570, 1.29540000, 1.37160000, 0.15049500
6571, 1.37160000, 1.37160000, 0.15049500
6572, 1.44780000, 1.37160000, 0.15049500
6573, 1.52400000, 1.37160000, 0.15049500
6574, 0.00000000, 1.44780000, 0.15049500
6575, 0.07620000, 1.44780000, 0.15049500
6576, 0.15240000, 1.44780000, 0.15049500
6577, 0.22860000, 1.44780000, 0.15049500
6578, 0.30480000, 1.44780000, 0.15049500
6579, 0.38100000, 1.44780000, 0.15049500
6580, 0.45720000, 1.44780000, 0.15049500
6581, 0.53340000, 1.44780000, 0.15049500
6582, 0.60960000, 1.44780000, 0.15049500
6583, 0.68580000, 1.44780000, 0.15049500
6584, 0.76200000, 1.44780000, 0.15049500
6585, 0.83820000, 1.44780000, 0.15049500
6586, 0.91440000, 1.44780000, 0.15049500
6587, 0.99060000, 1.44780000, 0.15049500
6588, 1.06680000, 1.44780000, 0.15049500
6589, 1.14300000, 1.44780000, 0.15049500
6590, 1.21920000, 1.44780000, 0.15049500
6591, 1.29540000, 1.44780000, 0.15049500
6592, 1.37160000, 1.44780000, 0.15049500
6593, 1.44780000, 1.44780000, 0.15049500
6594, 1.52400000, 1.44780000, 0.15049500
6595, 0.00000000, 1.52400000, 0.15049500
6596, 0.07620000, 1.52400000, 0.15049500
6597, 0.15240000, 1.52400000, 0.15049500
6598, 0.22860000, 1.52400000, 0.15049500
6599, 0.30480000, 1.52400000, 0.15049500
6600, 0.38100000, 1.52400000, 0.15049500
6601, 0.45720000, 1.52400000, 0.15049500
6602, 0.53340000, 1.52400000, 0.15049500
6603, 0.60960000, 1.52400000, 0.15049500
6604, 0.68580000, 1.52400000, 0.15049500
6605, 0.76200000, 1.52400000, 0.15049500
6606, 0.83820000, 1.52400000, 0.15049500
6607, 0.91440000, 1.52400000, 0.15049500
6608, 0.99060000, 1.52400000, 0.15049500
6609, 1.06680000, 1.52400000, 0.15049500
6610, 1.14300000, 1.52400000, 0.15049500
6611, 1.21920000, 1.52400000, 0.15049500
6612, 1.29540000, 1.52400000, 0.15049500
6613, 1.37160000, 1.52400000, 0.15049500
6614, 1.44780000, 1.52400000, 0.15049500
6615, 1.52400000, 1.52400000, 0.15049500
6616, 0.00000000, 0.00000000, 0.15144750
6617, 0.07620000, 0.00000000, 0.15144750
6618, 0.15240000, 0.00000000, 0.15144750
6619, 0.22860000, 0.00000000, 0.15144750
6620, 0.30480000, 0.00000000, 0.15144750
6621, 0.38100000, 0.00000000, 0.15144750
6622, 0.45720000, 0.00000000, 0.15144750
6623, 0.53340000, 0.00000000, 0.15144750
6624, 0.60960000, 0.00000000, 0.15144750
6625, 0.68580000, 0.00000000, 0.15144750
6626, 0.76200000, 0.00000000, 0.15144750
6627, 0.83820000, 0.00000000, 0.15144750
6628, 0.91440000, 0.00000000, 0.15144750
6629, 0.99060000, 0.00000000, 0.15144750
6630, 1.06680000, 0.00000000, 0.15144750
6631, 1.14300000, 0.00000000, 0.15144750
6632, 1.21920000, 0.00000000, 0.15144750
6633, 1.29540000, 0.00000000, 0.15144750
6634, 1.37160000, 0.00000000, 0.15144750
6635, 1.44780000, 0.00000000, 0.15144750
6636, 1.52400000, 0.00000000, 0.15144750
6637, 0.00000000, 0.07620000, 0.15144750
6638, 0.07620000, 0.07620000, 0.15144750
6639, 0.15240000, 0.07620000, 0.15144750
6640, 0.22860000, 0.07620000, 0.15144750
6641, 0.30480000, 0.07620000, 0.15144750
6642, 0.38100000, 0.07620000, 0.15144750
6643, 0.45720000, 0.07620000, 0.15144750
6644, 0.53340000, 0.07620000, 0.15144750
6645, 0.60960000, 0.07620000, 0.15144750
6646, 0.68580000, 0.07620000, 0.15144750
6647, 0.76200000, 0.07620000, 0.15144750
6648, 0.83820000, 0.07620000, 0.15144750
6649, 0.91440000, 0.07620000, 0.15144750
6650, 0.99060000, 0.07620000, 0.15144750
6651, 1.06680000, 0.07620000, 0.15144750
6652, 1.14300000, 0.07620000, 0.15144750
6653, 1.21920000, 0.07620000, 0.15144750
6654, 1.29540000, 0.07620000, 0.15144750
6655, 1.37160000, 0.07620000, 0.15144750
6656, 1.44780000, 0.07620000, 0.15144750
6657, 1.52400000, 0.07620000, 0.15144750
6658, 0.00000000, 0.15240000, 0.15144750
6659, 0.07620000, 0.15240000, 0.15144750
6660, 0.15240000, 0.15240000, 0.15144750
6661, 0.22860000, 0.15240000, 0.15144750
6662, 0.30480000, 0.15240000, 0.15144750
6663, 0.38100000, 0.15240000, 0.15144750
6664, 0.45720000, 0.15240000, 0.15144750
6665, 0.53340000, 0.15240000, 0.15144750
6666, 0.60960000, 0.15240000, 0.15144750
6667, 0.68580000, 0.15240000, 0.15144750
6668, 0.76200000, 0.15240000, 0.15144750
6669, 0.83820000, 0.15240000, 0.15144750
6670, 0.91440000, 0.15240000, 0.15144750
6671, 0.99060000, 0.15240000, 0.15144750
6672, 1.06680000, 0.15240000, 0.15144750
6673, 1.14300000, 0.15240000, 0.15144750
6674, 1.21920000, 0.15240000, 0.15144750
6675, 1.29540000, 0.15240000, 0.15144750
6676, 1.37160000, 0.15240000, 0.15144750
6677, 1.44780000, 0.15240000, 0.15144750
6678, 1.52400000, 0.15240000, 0.15144750
6679, 0.00000000, 0.22860000, 0.15144750
6680, 0.07620000, 0.22860000, 0.15144750
6681, 0.15240000, 0.22860000, 0.15144750
6682, 0.22860000, 0.22860000, 0.15144750
6683, 0.30480000, 0.22860000, 0.15144750
6684, 0.38100000, 0.22860000, 0.15144750
6685, 0.45720000, 0.22860000, 0.15144750
6686, 0.53340000, 0.22860000, 0.15144750
6687, 0.60960000, 0.22860000, 0.15144750
6688, 0.68580000, 0.22860000, 0.15144750
6689, 0.76200000, 0.22860000, 0.15144750
6690, 0.83820000, 0.22860000, 0.15144750
6691, 0.91440000, 0.22860000, 0.15144750
6692, 0.99060000, 0.22860000, 0.15144750
6693, 1.06680000, 0.22860000, 0.15144750
6694, 1.14300000, 0.22860000, 0.15144750
6695, 1.21920000, 0.22860000, 0.15144750
6696, 1.29540000, 0.22860000, 0.15144750
6697, 1.37160000, 0.22860000, 0.15144750
6698, 1.44780000, 0.22860000, 0.15144750
6699, 1.52400000, 0.22860000, 0.15144750
6700, 0.00000000, 0.30480000, 0.15144750
6701, 0.07620000, 0.30480000, 0.15144750
6702, 0.15240000, 0.30480000, 0.15144750
6703, 0.22860000, 0.30480000, 0.15144750
6704, 0.30480000, 0.30480000, 0.15144750
6705, 0.38100000, 0.30480000, 0.15144750
6706, 0.45720000, 0.30480000, 0.15144750
6707, 0.53340000, 0.30480000, 0.15144750
6708, 0.60960000, 0.30480000, 0.15144750
6709, 0.68580000, 0.30480000, 0.15144750
6710, 0.76200000, 0.30480000, 0.15144750
6711, 0.83820000, 0.30480000, 0.15144750
6712, 0.91440000, 0.30480000, 0.15144750
6713, 0.99060000, 0.30480000, 0.15144750
6714, 1.06680000, 0.30480000, 0.15144750
6715, 1.14300000, 0.30480000, 0.15144750
6716, 1.21920000, 0.30480000, 0.15144750
6717, 1.29540000, 0.30480000, 0.15144750
6718, 1.37160000, 0.30480000, 0.15144750
6719, 1.44780000, 0.30480000, 0.15144750
6720, 1.52400000, 0.30480000, 0.15144750
6721, 0.00000000, 0.38100000, 0.15144750
6722, 0.07620000, 0.38100000, 0.15144750
6723, 0.15240000, 0.38100000, 0.15144750
6724, 0.22860000, 0.38100000, 0.15144750
6725, 0.30480000, 0.38100000, 0.15144750
6726, 0.38100000, 0.38100000, 0.15144750
6727, 0.45720000, 0.38100000, 0.15144750
6728, 0.53340000, 0.38100000, 0.15144750
6729, 0.60960000, 0.38100000, 0.15144750
6730, 0.68580000, 0.38100000, 0.15144750
6731, 0.76200000, 0.38100000, 0.15144750
6732, 0.83820000, 0.38100000, 0.15144750
6733, 0.91440000, 0.38100000, 0.15144750
6734, 0.99060000, 0.38100000, 0.15144750
6735, 1.06680000, 0.38100000, 0.15144750
6736, 1.14300000, 0.38100000, 0.15144750
6737, 1.21920000, 0.38100000, 0.15144750
6738, 1.29540000, 0.38100000, 0.15144750
6739, 1.37160000, 0.38100000, 0.15144750
6740, 1.44780000, 0.38100000, 0.15144750
6741, 1.52400000, 0.38100000, 0.15144750
6742, 0.00000000, 0.45720000, 0.15144750
6743, 0.07620000, 0.45720000, 0.15144750
6744, 0.15240000, 0.45720000, 0.15144750
6745, 0.22860000, 0.45720000, 0.15144750
6746, 0.30480000, 0.45720000, 0.15144750
6747, 0.38100000, 0.45720000, 0.15144750
6748, 0.45720000, 0.45720000, 0.15144750
6749, 0.53340000, 0.45720000, 0.15144750
6750, 0.60960000, 0.45720000, 0.15144750
6751, 0.68580000, 0.45720000, 0.15144750
6752, 0.76200000, 0.45720000, 0.15144750
6753, 0.83820000, 0.45720000, 0.15144750
6754, 0.91440000, 0.45720000, 0.15144750
6755, 0.99060000, 0.45720000, 0.15144750
6756, 1.06680000, 0.45720000, 0.15144750
6757, 1.14300000, 0.45720000, 0.15144750
6758, 1.21920000, 0.45720000, 0.15144750
6759, 1.29540000, 0.45720000, 0.15144750
6760, 1.37160000, 0.45720000, 0.15144750
6761, 1.44780000, 0.45720000, 0.15144750
6762, 1.52400000, 0.45720000, 0.15144750
6763, 0.00000000, 0.53340000, 0.15144750
6764, 0.07620000, 0.53340000, 0.15144750
6765, 0.15240000, 0.53340000, 0.15144750
6766, 0.22860000, 0.53340000, 0.15144750
6767, 0.30480000, 0.53340000, 0.15144750
6768, 0.38100000, 0.53340000, 0.15144750
6769, 0.45720000, 0.53340000, 0.15144750
6770, 0.53340000, 0.53340000, 0.15144750
6771, 0.60960000, 0.53340000, 0.15144750
6772, 0.68580000, 0.53340000, 0.15144750
6773, 0.76200000, 0.53340000, 0.15144750
6774, 0.83820000, 0.53340000, 0.15144750
6775, 0.91440000, 0.53340000, 0.15144750
6776, 0.99060000, 0.53340000, 0.15144750
6777, 1.06680000, 0.53340000, 0.15144750
6778, 1.14300000, 0.53340000, 0.15144750
6779, 1.21920000, 0.53340000, 0.15144750
6780, 1.29540000, 0.53340000, 0.15144750
6781, 1.37160000, 0.53340000, 0.15144750
6782, 1.44780000, 0.53340000, 0.15144750
6783, 1.52400000, 0.53340000, 0.15144750
6784, 0.00000000, 0.60960000, 0.15144750
6785, 0.07620000, 0.60960000, 0.15144750
6786, 0.15240000, 0.60960000, 0.15144750
6787, 0.22860000, 0.60960000, 0.15144750
6788, 0.30480000, 0.60960000, 0.15144750
6789, 0.38100000, 0.60960000, 0.15144750
6790, 0.45720000, 0.60960000, 0.15144750
6791, 0.53340000, 0.60960000, 0.15144750
6792, 0.60960000, 0.60960000, 0.15144750
6793, 0.68580000, 0.60960000, 0.15144750
6794, 0.76200000, 0.60960000, 0.15144750
6795, 0.83820000, 0.60960000, 0.15144750
6796, 0.91440000, 0.60960000, 0.15144750
6797, 0.99060000, 0.60960000, 0.15144750
6798, 1.06680000, 0.60960000, 0.15144750
6799, 1.14300000, 0.60960000, 0.15144750
6800, 1.21920000, 0.60960000, 0.15144750
6801, 1.29540000, 0.60960000, 0.15144750
6802, 1.37160000, 0.60960000, 0.15144750
6803, 1.44780000, 0.60960000, 0.15144750
6804, 1.52400000, 0.60960000, 0.15144750
6805, 0.00000000, 0.68580000, 0.15144750
6806, 0.07620000, 0.68580000, 0.15144750
6807, 0.15240000, 0.68580000, 0.15144750
6808, 0.22860000, 0.68580000, 0.15144750
6809, 0.30480000, 0.68580000, 0.15144750
6810, 0.38100000, 0.68580000, 0.15144750
6811, 0.45720000, 0.68580000, 0.15144750
6812, 0.53340000, 0.68580000, 0.15144750
6813, 0.60960000, 0.68580000, 0.15144750
6814, 0.68580000, 0.68580000, 0.15144750
6815, 0.76200000, 0.68580000, 0.15144750
6816, 0.83820000, 0.68580000, 0.15144750
6817, 0.91440000, 0.68580000, 0.15144750
6818, 0.99060000, 0.68580000, 0.15144750
6819, 1.06680000, 0.68580000, 0.15144750
6820, 1.14300000, 0.68580000, 0.15144750
6821, 1.21920000, 0.68580000, 0.15144750
6822, 1.29540000, 0.68580000, 0.15144750
6823, 1.37160000, 0.68580000, 0.15144750
6824, 1.44780000, 0.68580000, 0.15144750
6825, 1.52400000, 0.68580000, 0.15144750
6826, 0.00000000, 0.76200000, 0.15144750
6827, 0.07620000, 0.76200000, 0.15144750
6828, 0.15240000, 0.76200000, 0.15144750
6829, 0.22860000, 0.76200000, 0.15144750
6830, 0.30480000, 0.76200000, 0.15144750
6831, 0.38100000, 0.76200000, 0.15144750
6832, 0.45720000, 0.76200000, 0.15144750
6833, 0.53340000, 0.76200000, 0.15144750
6834, 0.60960000, 0.76200000, 0.15144750
6835, 0.68580000, 0.76200000, 0.15144750
6836, 0.76200000, 0.76200000, 0.15144750
6837, 0.83820000, 0.76200000, 0.15144750
6838, 0.91440000, 0.76200000, 0.15144750
6839, 0.99060000, 0.76200000, 0.15144750
6840, 1.06680000, 0.76200000, 0.15144750
6841, 1.14300000, 0.76200000, 0.15144750
6842, 1.21920000, 0.76200000, 0.15144750
6843, 1.29540000, 0.76200000, 0.15144750
6844, 1.37160000, 0.76200000, 0.15144750
6845, 1.44780000, 0.76200000, 0.15144750
6846, 1.52400000, 0.76200000, 0.15144750
6847, 0.00000000, 0.83820000, 0.15144750
6848, 0.07620000, 0.83820000, 0.15144750
6849, 0.15240000, 0.83820000, 0.15144750
6850, 0.22860000, 0.83820000, 0.15144750
6851, 0.30480000, 0.83820000, 0.15144750
6852, 0.38100000, 0.83820000, 0.15144750
6853, 0.45720000, 0.83820000, 0.15144750
6854, 0.53340000, 0.83820000, 0.15144750
6855, 0.60960000, 0.83820000, 0.15144750
6856, 0.68580000, 0.83820000, 0.15144750
6857, 0.76200000, 0.83820000, 0.15144750
6858, 0.83820000, 0.83820000, 0.15144750
6859, 0.91440000, 0.83820000, 0.15144750
6860, 0.99060000, 0.83820000, 0.15144750
6861, 1.06680000, 0.83820000, 0.15144750
6862, 1.14300000, 0.83820000, 0.15144750
6863, 1.21920000, 0.83820000, 0.15144750
6864, 1.29540000, 0.83820000, 0.15144750
6865, 1.37160000, 0.83820000, 0.15144750
6866, 1.44780000, 0.83820000, 0.15144750
6867, 1.52400000, 0.83820000, 0.15144750
6868, 0.00000000, 0.91440000, 0.15144750
6869, 0.07620000, 0.91440000, 0.15144750
6870, 0.15240000, 0.91440000, 0.15144750
6871, 0.22860000, 0.91440000, 0.15144750
6872, 0.30480000, 0.91440000, 0.15144750
6873, 0.38100000, 0.91440000, 0.15144750
6874, 0.45720000, 0.91440000, 0.15144750
6875, 0.53340000, 0.91440000, 0.15144750
6876, 0.60960000, 0.91440000, 0.15144750
6877, 0.68580000, 0.91440000, 0.15144750
6878, 0.76200000, 0.91440000, 0.15144750
6879, 0.83820000, 0.91440000, 0.15144750
6880, 0.91440000, 0.91440000, 0.15144750
6881, 0.99060000, 0.91440000, 0.15144750
6882, 1.06680000, 0.91440000, 0.15144750
6883, 1.14300000, 0.91440000, 0.15144750
6884, 1.21920000, 0.91440000, 0.15144750
6885, 1.29540000, 0.91440000, 0.15144750
6886, 1.37160000, 0.91440000, 0.15144750
6887, 1.44780000, 0.91440000, 0.15144750
6888, 1.52400000, 0.91440000, 0.15144750
6889, 0.00000000, 0.99060000, 0.15144750
6890, 0.07620000, 0.99060000, 0.15144750
6891, 0.15240000, 0.99060000, 0.15144750
6892, 0.22860000, 0.99060000, 0.15144750
6893, 0.30480000, 0.99060000, 0.15144750
6894, 0.38100000, 0.99060000, 0.15144750
6895, 0.45720000, 0.99060000, 0.15144750
6896, 0.53340000, 0.99060000, 0.15144750
6897, 0.60960000, 0.99060000, 0.15144750
6898, 0.68580000, 0.99060000, 0.15144750
6899, 0.76200000, 0.99060000, 0.15144750
6900, 0.83820000, 0.99060000, 0.15144750
6901, 0.91440000, 0.99060000, 0.15144750
6902, 0.99060000, 0.99060000, 0.15144750
6903, 1.06680000, 0.99060000, 0.15144750
6904, 1.14300000, 0.99060000, 0.15144750
6905, 1.21920000, 0.99060000, 0.15144750
6906, 1.29540000, 0.99060000, 0.15144750
6907, 1.37160000, 0.99060000, 0.15144750
6908, 1.44780000, 0.99060000, 0.15144750
6909, 1.52400000, 0.99060000, 0.15144750
6910, 0.00000000, 1.06680000, 0.15144750
6911, 0.07620000, 1.06680000, 0.15144750
6912, 0.15240000, 1.06680000, 0.15144750
6913, 0.22860000, 1.06680000, 0.15144750
6914, 0.30480000, 1.06680000, 0.15144750
6915, 0.38100000, 1.06680000, 0.15144750
6916, 0.45720000, 1.06680000, 0.15144750
6917, 0.53340000, 1.06680000, 0.15144750
6918, 0.60960000, 1.06680000, 0.15144750
6919, 0.68580000, 1.06680000, 0.15144750
6920, 0.76200000, 1.06680000, 0.15144750
6921, 0.83820000, 1.06680000, 0.15144750
6922, 0.91440000, 1.06680000, 0.15144750
6923, 0.99060000, 1.06680000, 0.15144750
6924, 1.06680000, 1.06680000, 0.15144750
6925, 1.14300000, 1.06680000, 0.15144750
6926, 1.21920000, 1.06680000, 0.15144750
6927, 1.29540000, 1.06680000, 0.15144750
6928, 1.37160000, 1.06680000, 0.15144750
6929, 1.44780000, 1.06680000, 0.15144750
6930, 1.52400000, 1.06680000, 0.15144750
6931, 0.00000000, 1.14300000, 0.15144750
6932, 0.07620000, 1.14300000, 0.15144750
6933, 0.15240000, 1.14300000, 0.15144750
6934, 0.22860000, 1.14300000, 0.15144750
6935, 0.30480000, 1.14300000, 0.15144750
6936, 0.38100000, 1.14300000, 0.15144750
6937, 0.45720000, 1.14300000, 0.15144750
6938, 0.53340000, 1.14300000, 0.15144750
6939, 0.60960000, 1.14300000, 0.15144750
6940, 0.68580000, 1.14300000, 0.15144750
6941, 0.76200000, 1.14300000, 0.15144750
6942, 0.83820000, 1.14300000, 0.15144750
6943, 0.91440000, 1.14300000, 0.15144750
6944, 0.99060000, 1.14300000, 0.15144750
6945, 1.06680000, 1.14300000, 0.15144750
6946, 1.14300000, 1.14300000, 0.15144750
6947, 1.21920000, 1.14300000, 0.15144750
6948, 1.29540000, 1.14300000, 0.15144750
6949, 1.37160000, 1.14300000, 0.15144750
6950, 1.44780000, 1.14300000, 0.15144750
6951, 1.52400000, 1.14300000, 0.15144750
6952, 0.00000000, 1.21920000, 0.15144750
6953, 0.07620000, 1.21920000, 0.15144750
6954, 0.15240000, 1.21920000, 0.15144750
6955, 0.22860000, 1.21920000, 0.15144750
6956, 0.30480000, 1.21920000, 0.15144750
6957, 0.38100000, 1.21920000, 0.15144750
6958, 0.45720000, 1.21920000, 0.15144750
6959, 0.53340000, 1.21920000, 0.15144750
6960, 0.60960000, 1.21920000, 0.15144750
6961, 0.68580000, 1.21920000, 0.15144750
6962, 0.76200000, 1.21920000, 0.15144750
6963, 0.83820000, 1.21920000, 0.15144750
6964, 0.91440000, 1.21920000, 0.15144750
6965, 0.99060000, 1.21920000, 0.15144750
6966, 1.06680000, 1.21920000, 0.15144750
6967, 1.14300000, 1.21920000, 0.15144750
6968, 1.21920000, 1.21920000, 0.15144750
6969, 1.29540000, 1.21920000, 0.15144750
6970, 1.37160000, 1.21920000, 0.15144750
6971, 1.44780000, 1.21920000, 0.15144750
6972, 1.52400000, 1.21920000, 0.15144750
6973, 0.00000000, 1.29540000, 0.15144750
6974, 0.07620000, 1.29540000, 0.15144750
6975, 0.15240000, 1.29540000, 0.15144750
6976, 0.22860000, 1.29540000, 0.15144750
6977, 0.30480000, 1.29540000, 0.15144750
6978, 0.38100000, 1.29540000, 0.15144750
6979, 0.45720000, 1.29540000, 0.15144750
6980, 0.53340000, 1.29540000, 0.15144750
6981, 0.60960000, 1.29540000, 0.15144750
6982, 0.68580000, 1.29540000, 0.15144750
6983, 0.76200000, 1.29540000, 0.15144750
6984, 0.83820000, 1.29540000, 0.15144750
6985, 0.91440000, 1.29540000, 0.15144750
6986, 0.99060000, 1.29540000, 0.15144750
6987, 1.06680000, 1.29540000, 0.15144750
6988, 1.14300000, 1.29540000, 0.15144750
6989, 1.21920000, 1.29540000, 0.15144750
6990, 1.29540000, 1.29540000, 0.15144750
6991, 1.37160000, 1.29540000, 0.15144750
6992, 1.44780000, 1.29540000, 0.15144750
6993, 1.52400000, 1.29540000, 0.15144750
6994, 0.00000000, 1.37160000, 0.15144750
6995, 0.07620000, 1.37160000, 0.15144750
6996, 0.15240000, 1.37160000, 0.15144750
6997, 0.22860000, 1.37160000, 0.15144750
6998, 0.30480000, 1.37160000, 0.15144750
6999, 0.38100000, 1.37160000, 0.15144750
7000, 0.45720000, 1.37160000, 0.15144750
7001, 0.53340000, 1.37160000, 0.15144750
7002, 0.60960000, 1.37160000, 0.15144750
7003, 0.68580000, 1.37160000, 0.15144750
7004, 0.76200000, 1.37160000, 0.15144750
7005, 0.83820000, 1.37160000, 0.15144750
7006, 0.91440000, 1.37160000, 0.15144750
7007, 0.99060000, 1.37160000, 0.15144750
7008, 1.06680000, 1.37160000, 0.15144750
7009, 1.14300000, 1.37160000, 0.15144750
7010, 1.21920000, 1.37160000, 0.15144750
7011, 1.29540000, 1.37160000, 0.15144750
7012, 1.37160000, 1.37160000, 0.15144750
7013, 1.44780000, 1.37160000, 0.15144750
7014, 1.52400000, 1.37160000, 0.15144750
7015, 0.00000000, 1.44780000, 0.15144750
7016, 0.07620000, 1.44780000, 0.15144750
7017, 0.15240000, 1.44780000, 0.15144750
7018, 0.22860000, 1.44780000, 0.15144750
7019, 0.30480000, 1.44780000, 0.15144750
7020, 0.38100000, 1.44780000, 0.15144750
7021, 0.45720000, 1.44780000, 0.15144750
7022, 0.53340000, 1.44780000, 0.15144750
7023, 0.60960000, 1.44780000, 0.15144750
7024, 0.68580000, 1.44780000, 0.15144750
7025, 0.76200000, 1.44780000, 0.15144750
7026, 0.83820000, 1.44780000, 0.15144750
7027, 0.91440000, 1.44780000, 0.15144750
7028, 0.99060000, 1.44780000, 0.15144750
7029, 1.06680000, 1.44780000, 0.15144750
7030, 1.14300000, 1.44780000, 0.15144750
7031, 1.21920000, 1.44780000, 0.15144750
7032, 1.29540000, 1.44780000, 0.15144750
7033, 1.37160000, 1.44780000, 0.15144750
7034, 1.44780000, 1.44780000, 0.15144750
7035, 1.52400000, 1.44780000, 0.15144750
7036, 0.00000000, 1.52400000, 0.15144750
7037, 0.07620000, 1.52400000, 0.15144750
7038, 0.15240000, 1.52400000, 0.15144750
7039, 0.22860000, 1.52400000, 0.15144750
7040, 0.30480000, 1.52400000, 0.15144750
7041, 0.38100000, 1.52400000, 0.15144750
7042, 0.45720000, 1.52400000, 0.15144750
7043, 0.53340000, 1.52400000, 0.15144750
7044, 0.60960000, 1.52400000, 0.15144750
7045, 0.68580000, 1.52400000, 0.15144750
7046, 0.76200000, 1.52400000, 0.15144750
7047, 0.83820000, 1.52400000, 0.15144750
7048, 0.91440000, 1.52400000, 0.15144750
7049, 0.99060000, 1.52400000, 0.15144750
7050, 1.06680000, 1.52400000, 0.15144750
7051, 1.14300000, 1.52400000, 0.15144750
7052, 1.21920000, 1.52400000, 0.15144750
7053, 1.29540000, 1.52400000, 0.15144750
7054, 1.37160000, 1.52400000, 0.15144750
7055, 1.44780000, 1.52400000, 0.15144750
7056, 1.52400000, 1.52400000, 0.15144750
7057, 0.00000000, 0.00000000, 0.15240000
7058, 0.07620000, 0.00000000, 0.15240000
7059, 0.15240000, 0.00000000, 0.15240000
7060, 0.22860000, 0.00000000, 0.15240000
7061, 0.30480000, 0.00000000, 0.15240000
7062, 0.38100000, 0.00000000, 0.15240000
7063, 0.45720000, 0.00000000, 0.15240000
7064, 0.53340000, 0.00000000, 0.15240000
7065, 0.60960000, 0.00000000, 0.15240000
7066, 0.68580000, 0.00000000, 0.15240000
7067, 0.76200000, 0.00000000, 0.15240000
7068, 0.83820000, 0.00000000, 0.15240000
7069, 0.91440000, 0.00000000, 0.15240000
7070, 0.99060000, 0.00000000, 0.15240000
7071, 1.06680000, 0.00000000, 0.15240000
7072, 1.14300000, 0.00000000, 0.15240000
7073, 1.21920000, 0.00000000, 0.15240000
7074, 1.29540000, 0.00000000, 0.15240000
7075, 1.37160000, 0.00000000, 0.15240000
7076, 1.44780000, 0.00000000, 0.15240000
7077, 1.52400000, 0.00000000, 0.15240000
7078, 0.00000000, 0.07620000, 0.15240000
7079, 0.07620000, 0.07620000, 0.15240000
7080, 0.15240000, 0.07620000, 0.15240000
7081, 0.22860000, 0.07620000, 0.15240000
7082, 0.30480000, 0.07620000, 0.15240000
7083, 0.38100000, 0.07620000, 0.15240000
7084, 0.45720000, 0.07620000, 0.15240000
7085, 0.53340000, 0.07620000, 0.15240000
7086, 0.60960000, 0.07620000, 0.15240000
7087, 0.68580000, 0.07620000, 0.15240000
7088, 0.76200000, 0.07620000, 0.15240000
7089, 0.83820000, 0.07620000, 0.15240000
7090, 0.91440000, 0.07620000, 0.15240000
7091, 0.99060000, 0.07620000, 0.15240000
7092, 1.06680000, 0.07620000, 0.15240000
7093, 1.14300000, 0.07620000, 0.15240000
7094, 1.21920000, 0.07620000, 0.15240000
7095, 1.29540000, 0.07620000, 0.15240000
7096, 1.37160000, 0.07620000, 0.15240000
7097, 1.44780000, 0.07620000, 0.15240000
7098, 1.52400000, 0.07620000, 0.15240000
7099, 0.00000000, 0.15240000, 0.15240000
7100, 0.07620000, 0.15240000, 0.15240000
7101, 0.15240000, 0.15240000, 0.15240000
7102, 0.22860000, 0.15240000, 0.15240000
7103, 0.30480000, 0.15240000, 0.15240000
7104, 0.38100000, 0.15240000, 0.15240000
7105, 0.45720000, 0.15240000, 0.15240000
7106, 0.53340000, 0.15240000, 0.15240000
7107, 0.60960000, 0.15240000, 0.15240000
7108, 0.68580000, 0.15240000, 0.15240000
7109, 0.76200000, 0.15240000, 0.15240000
7110, 0.83820000, 0.15240000, 0.15240000
7111, 0.91440000, 0.15240000, 0.15240000
7112, 0.99060000, 0.15240000, 0.15240000
7113, 1.06680000, 0.15240000, 0.15240000
7114, 1.14300000, 0.15240000, 0.15240000
7115, 1.21920000, 0.15240000, 0.15240000
7116, 1.29540000, 0.15240000, 0.15240000
7117, 1.37160000, 0.15240000, 0.15240000
7118, 1.44780000, 0.15240000, 0.15240000
7119, 1.52400000, 0.15240000, 0.15240000
7120, 0.00000000, 0.22860000, 0.15240000
7121, 0.07620000, 0.22860000, 0.15240000
7122, 0.15240000, 0.22860000, 0.15240000
7123, 0.22860000, 0.22860000, 0.15240000
7124, 0.30480000, 0.22860000, 0.15240000
7125, 0.38100000, 0.22860000, 0.15240000
7126, 0.45720000, 0.22860000, 0.15240000
7127, 0.53340000, 0.22860000, 0.15240000
7128, 0.60960000, 0.22860000, 0.15240000
7129, 0.68580000, 0.22860000, 0.15240000
7130, 0.76200000, 0.22860000, 0.15240000
7131, 0.83820000, 0.22860000, 0.15240000
7132, 0.91440000, 0.22860000, 0.15240000
7133, 0.99060000, 0.22860000, 0.15240000
7134, 1.06680000, 0.22860000, 0.15240000
7135, 1.14300000, 0.22860000, 0.15240000
7136, 1.21920000, 0.22860000, 0.15240000
7137, 1.29540000, 0.22860000, 0.15240000
7138, 1.37160000, 0.22860000, 0.15240000
7139, 1.44780000, 0.22860000, 0.15240000
7140, 1.52400000, 0.22860000, 0.15240000
7141, 0.00000000, 0.30480000, 0.15240000
7142, 0.07620000, 0.30480000, 0.15240000
7143, 0.15240000, 0.30480000, 0.15240000
7144, 0.22860000, 0.30480000, 0.15240000
7145, 0.30480000, 0.30480000, 0.15240000
7146, 0.38100000, 0.30480000, 0.15240000
7147, 0.45720000, 0.30480000, 0.15240000
7148, 0.53340000, 0.30480000, 0.15240000
7149, 0.60960000, 0.30480000, 0.15240000
7150, 0.68580000, 0.30480000, 0.15240000
7151, 0.76200000, 0.30480000, 0.15240000
7152, 0.83820000, 0.30480000, 0.15240000
7153, 0.91440000, 0.30480000, 0.15240000
7154, 0.99060000, 0.30480000, 0.15240000
7155, 1.06680000, 0.30480000, 0.15240000
7156, 1.14300000, 0.30480000, 0.15240000
7157, 1.21920000, 0.30480000, 0.15240000
7158, 1.29540000, 0.30480000, 0.15240000
7159, 1.37160000, 0.30480000, 0.15240000
7160, 1.44780000, 0.30480000, 0.15240000
7161, 1.52400000, 0.30480000, 0.15240000
7162, 0.00000000, 0.38100000, 0.15240000
7163, 0.07620000, 0.38100000, 0.15240000
7164, 0.15240000, 0.38100000, 0.15240000
7165, 0.22860000, 0.38100000, 0.15240000
7166, 0.30480000, 0.38100000, 0.15240000
7167, 0.38100000, 0.38100000, 0.15240000
7168, 0.45720000, 0.38100000, 0.15240000
7169, 0.53340000, 0.38100000, 0.15240000
7170, 0.60960000, 0.38100000, 0.15240000
7171, 0.68580000, 0.38100000, 0.15240000
7172, 0.76200000, 0.38100000, 0.15240000
7173, 0.83820000, 0.38100000, 0.15240000
7174, 0.91440000, 0.38100000, 0.15240000
7175, 0.99060000, 0.38100000, 0.15240000
7176, 1.06680000, 0.38100000, 0.15240000
7177, 1.14300000, 0.38100000, 0.15240000
7178, 1.21920000, 0.38100000, 0.15240000
7179, 1.29540000, 0.38100000, 0.15240000
7180, 1.37160000, 0.38100000, 0.15240000
7181, 1.44780000, 0.38100000, 0.15240000
7182, 1.52400000, 0.38100000, 0.15240000
7183, 0.00000000, 0.45720000, 0.15240000
7184, 0.07620000, 0.45720000, 0.15240000
7185, 0.15240000, 0.45720000, 0.15240000
7186, 0.22860000, 0.45720000, 0.15240000
7187, 0.30480000, 0.45720000, 0.15240000
7188, 0.38100000, 0.45720000, 0.15240000
7189, 0.45720000, 0.45720000, 0.15240000
7190, 0.53340000, 0.45720000, 0.15240000
7191, 0.60960000, 0.45720000, 0.15240000
7192, 0.68580000, 0.45720000, 0.15240000
7193, 0.76200000, 0.45720000, 0.15240000
7194, 0.83820000, 0.45720000, 0.15240000
7195, 0.91440000, 0.45720000, 0.15240000
7196, 0.99060000, 0.45720000, 0.15240000
7197, 1.06680000, 0.45720000, 0.15240000
7198, 1.14300000, 0.45720000, 0.15240000
7199, 1.21920000, 0.45720000, 0.15240000
7200, 1.29540000, 0.45720000, 0.15240000
7201, 1.37160000, 0.45720000, 0.15240000
7202, 1.44780000, 0.45720000, 0.15240000
7203, 1.52400000, 0.45720000, 0.15240000
7204, 0.00000000, 0.53340000, 0.15240000
7205, 0.07620000, 0.53340000, 0.15240000
7206, 0.15240000, 0.53340000, 0.15240000
7207, 0.22860000, 0.53340000, 0.15240000
7208, 0.30480000, 0.53340000, 0.15240000
7209, 0.38100000, 0.53340000, 0.15240000
7210, 0.45720000, 0.53340000, 0.15240000
7211, 0.53340000, 0.53340000, 0.15240000
7212, 0.60960000, 0.53340000, 0.15240000
7213, 0.68580000, 0.53340000, 0.15240000
7214, 0.76200000, 0.53340000, 0.15240000
7215, 0.83820000, 0.53340000, 0.15240000
7216, 0.91440000, 0.53340000, 0.15240000
7217, 0.99060000, 0.53340000, 0.15240000
7218, 1.06680000, 0.53340000, 0.15240000
7219, 1.14300000, 0.53340000, 0.15240000
7220, 1.21920000, 0.53340000, 0.15240000
7221, 1.29540000, 0.53340000, 0.15240000
7222, 1.37160000, 0.53340000, 0.15240000
7223, 1.44780000, 0.53340000, 0.15240000
7224, 1.52400000, 0.53340000, 0.15240000
7225, 0.00000000, 0.60960000, 0.15240000
7226, 0.07620000, 0.60960000, 0.15240000
7227, 0.15240000, 0.60960000, 0.15240000
7228, 0.22860000, 0.60960000, 0.15240000
7229, 0.30480000, 0.60960000, 0.15240000
7230, 0.38100000, 0.60960000, 0.15240000
7231, 0.45720000, 0.60960000, 0.15240000
7232, 0.53340000, 0.60960000, 0.15240000
7233, 0.60960000, 0.60960000, 0.15240000
7234, 0.68580000, 0.60960000, 0.15240000
7235, 0.76200000, 0.60960000, 0.15240000
7236, 0.83820000, 0.60960000, 0.15240000
7237, 0.91440000, 0.60960000, 0.15240000
7238, 0.99060000, 0.60960000, 0.15240000
7239, 1.06680000, 0.60960000, 0.15240000
7240, 1.14300000, 0.60960000, 0.15240000
7241, 1.21920000, 0.60960000, 0.15240000
7242, 1.29540000, 0.60960000, 0.15240000
7243, 1.37160000, 0.60960000, 0.15240000
7244, 1.44780000, 0.60960000, 0.15240000
7245, 1.52400000, 0.60960000, 0.15240000
7246, 0.00000000, 0.68580000, 0.15240000
7247, 0.07620000, 0.68580000, 0.15240000
7248, 0.15240000, 0.68580000, 0.15240000
7249, 0.22860000, 0.68580000, 0.15240000
7250, 0.30480000, 0.68580000, 0.15240000
7251, 0.38100000, 0.68580000, 0.15240000
7252, 0.45720000, 0.68580000, 0.15240000
7253, 0.53340000, 0.68580000, 0.15240000
7254, 0.60960000, 0.68580000, 0.15240000
7255, 0.68580000, 0.68580000, 0.15240000
7256, 0.76200000, 0.68580000, 0.15240000
7257, 0.83820000, 0.68580000, 0.15240000
7258, 0.91440000, 0.68580000, 0.15240000
7259, 0.99060000, 0.68580000, 0.15240000
7260, 1.06680000, 0.68580000, 0.15240000
7261, 1.14300000, 0.68580000, 0.15240000
7262, 1.21920000, 0.68580000, 0.15240000
7263, 1.29540000, 0.68580000, 0.15240000
7264, 1.37160000, 0.68580000, 0.15240000
7265, 1.44780000, 0.68580000, 0.15240000
7266, 1.52400000, 0.68580000, 0.15240000
7267, 0.00000000, 0.76200000, 0.15240000
7268, 0.07620000, 0.76200000, 0.15240000
7269, 0.15240000, 0.76200000, 0.15240000
7270, 0.22860000, 0.76200000, 0.15240000
7271, 0.30480000, 0.76200000, 0.15240000
7272, 0.38100000, 0.76200000, 0.15240000
7273, 0.45720000, 0.76200000, 0.15240000
7274, 0.53340000, 0.76200000, 0.15240000
7275, 0.60960000, 0.76200000, 0.15240000
7276, 0.68580000, 0.76200000, 0.15240000
7277, 0.76200000, 0.76200000, 0.15240000
7278, 0.83820000, 0.76200000, 0.15240000
7279, 0.91440000, 0.76200000, 0.15240000
7280, 0.99060000, 0.76200000, 0.15240000
7281, 1.06680000, 0.76200000, 0.15240000
7282, 1.14300000, 0.76200000, 0.15240000
7283, 1.21920000, 0.76200000, 0.15240000
7284, 1.29540000, 0.76200000, 0.15240000
7285, 1.37160000, 0.76200000, 0.15240000
7286, 1.44780000, 0.76200000, 0.15240000
7287, 1.52400000, 0.76200000, 0.15240000
7288, 0.00000000, 0.83820000, 0.15240000
7289, 0.07620000, 0.83820000, 0.15240000
7290, 0.15240000, 0.83820000, 0.15240000
7291, 0.22860000, 0.83820000, 0.15240000
7292, 0.30480000, 0.83820000, 0.15240000
7293, 0.38100000, 0.83820000, 0.15240000
7294, 0.45720000, 0.83820000, 0.15240000
7295, 0.53340000, 0.83820000, 0.15240000
7296, 0.60960000, 0.83820000, 0.15240000
7297, 0.68580000, 0.83820000, 0.15240000
7298, 0.76200000, 0.83820000, 0.15240000
7299, 0.83820000, 0.83820000, 0.15240000
7300, 0.91440000, 0.83820000, 0.15240000
7301, 0.99060000, 0.83820000, 0.15240000
7302, 1.06680000, 0.83820000, 0.15240000
7303, 1.14300000, 0.83820000, 0.15240000
7304, 1.21920000, 0.83820000, 0.15240000
7305, 1.29540000, 0.83820000, 0.15240000
7306, 1.37160000, 0.83820000, 0.15240000
7307, 1.44780000, 0.83820000, 0.15240000
7308, 1.52400000, 0.83820000, 0.15240000
7309, 0.00000000, 0.91440000, 0.15240000
7310, 0.07620000, 0.91440000, 0.15240000
7311, 0.15240000, 0.91440000, 0.15240000
7312, 0.22860000, 0.91440000, 0.15240000
7313, 0.30480000, 0.91440000, 0.15240000
7314, 0.38100000, 0.91440000, 0.15240000
7315, 0.45720000, 0.91440000, 0.15240000
7316, 0.53340000, 0.91440000, 0.15240000
7317, 0.60960000, 0.91440000, 0.15240000
7318, 0.68580000, 0.91440000, 0.15240000
7319, 0.76200000, 0.91440000, 0.15240000
7320, 0.83820000, 0.91440000, 0.15240000
7321, 0.91440000, 0.91440000, 0.15240000
7322, 0.99060000, 0.91440000, 0.15240000
7323, 1.06680000, 0.91440000, 0.15240000
7324, 1.14300000, 0.91440000, 0.15240000
7325, 1.21920000, 0.91440000, 0.15240000
7326, 1.29540000, 0.91440000, 0.15240000
7327, 1.37160000, 0.91440000, 0.15240000
7328, 1.44780000, 0.91440000, 0.15240000
7329, 1.52400000, 0.91440000, 0.15240000
7330, 0.00000000, 0.99060000, 0.15240000
7331, 0.07620000, 0.99060000, 0.15240000
7332, 0.15240000, 0.99060000, 0.15240000
7333, 0.22860000, 0.99060000, 0.15240000
7334, 0.30480000, 0.99060000, 0.15240000
7335, 0.38100000, 0.99060000, 0.15240000
7336, 0.45720000, 0.99060000, 0.15240000
7337, 0.53340000, 0.99060000, 0.15240000
7338, 0.60960000, 0.99060000, 0.15240000
7339, 0.68580000, 0.99060000, 0.15240000
7340, 0.76200000, 0.99060000, 0.15240000
7341, 0.83820000, 0.99060000, 0.15240000
7342, 0.91440000, 0.99060000, 0.15240000
7343, 0.99060000, 0.99060000, 0.15240000
7344, 1.06680000, 0.99060000, 0.15240000
7345, 1.14300000, 0.99060000, 0.15240000
7346, 1.21920000, 0.99060000, 0.15240000
7347, 1.29540000, 0.99060000, 0.15240000
7348, 1.37160000, 0.99060000, 0.15240000
7349, 1.44780000, 0.99060000, 0.15240000
7350, 1.52400000, 0.99060000, 0.15240000
7351, 0.00000000, 1.06680000, 0.15240000
7352, 0.07620000, 1.06680000, 0.15240000
7353, 0.15240000, 1.06680000, 0.15240000
7354, 0.22860000, 1.06680000, 0.15240000
7355, 0.30480000, 1.06680000, 0.15240000
7356, 0.38100000, 1.06680000, 0.15240000
7357, 0.45720000, 1.06680000, 0.15240000
7358, 0.53340000, 1.06680000, 0.15240000
7359, 0.60960000, 1.06680000, 0.15240000
7360, 0.68580000, 1.06680000, 0.15240000
7361, 0.76200000, 1.06680000, 0.15240000
7362, 0.83820000, 1.06680000, 0.15240000
7363, 0.91440000, 1.06680000, 0.15240000
7364, 0.99060000, 1.06680000, 0.15240000
7365, 1.06680000, 1.06680000, 0.15240000
7366, 1.14300000, 1.06680000, 0.15240000
7367, 1.21920000, 1.06680000, 0.15240000
7368, 1.29540000, 1.06680000, 0.15240000
7369, 1.37160000, 1.06680000, 0.15240000
7370, 1.44780000, 1.06680000, 0.15240000
7371, 1.52400000, 1.06680000, 0.15240000
7372, 0.00000000, 1.14300000, 0.15240000
7373, 0.07620000, 1.14300000, 0.15240000
7374, 0.15240000, 1.14300000, 0.15240000
7375, 0.22860000, 1.14300000, 0.15240000
7376, 0.30480000, 1.14300000, 0.15240000
7377, 0.38100000, 1.14300000, 0.15240000
7378, 0.45720000, 1.14300000, 0.15240000
7379, 0.53340000, 1.14300000, 0.15240000
7380, 0.60960000, 1.14300000, 0.15240000
7381, 0.68580000, 1.14300000, 0.15240000
7382, 0.76200000, 1.14300000, 0.15240000
7383, 0.83820000, 1.14300000, 0.15240000
7384, 0.91440000, 1.14300000, 0.15240000
7385, 0.99060000, 1.14300000, 0.15240000
7386, 1.06680000, 1.14300000, 0.15240000
7387, 1.14300000, 1.14300000, 0.15240000
7388, 1.21920000, 1.14300000, 0.15240000
7389, 1.29540000, 1.14300000, 0.15240000
7390, 1.37160000, 1.14300000, 0.15240000
7391, 1.44780000, 1.14300000, 0.15240000
7392, 1.52400000, 1.14300000, 0.15240000
7393, 0.00000000, 1.21920000, 0.15240000
7394, 0.07620000, 1.21920000, 0.15240000
7395, 0.15240000, 1.21920000, 0.15240000
7396, 0.22860000, 1.21920000, 0.15240000
7397, 0.30480000, 1.21920000, 0.15240000
7398, 0.38100000, 1.21920000, 0.15240000
7399, 0.45720000, 1.21920000, 0.15240000
7400, 0.53340000, 1.21920000, 0.15240000
7401, 0.60960000, 1.21920000, 0.15240000
7402, 0.68580000, 1.21920000, 0.15240000
7403, 0.76200000, 1.21920000, 0.15240000
7404, 0.83820000, 1.21920000, 0.15240000
7405, 0.91440000, 1.21920000, 0.15240000
7406, 0.99060000, 1.21920000, 0.15240000
7407, 1.06680000, 1.21920000, 0.15240000
7408, 1.14300000, 1.21920000, 0.15240000
7409, 1.21920000, 1.21920000, 0.15240000
7410, 1.29540000, 1.21920000, 0.15240000
7411, 1.37160000, 1.21920000, 0.15240000
7412, 1.44780000, 1.21920000, 0.15240000
7413, 1.52400000, 1.21920000, 0.15240000
7414, 0.00000000, 1.29540000, 0.15240000
7415, 0.07620000, 1.29540000, 0.15240000
7416, 0.15240000, 1.29540000, 0.15240000
7417, 0.22860000, 1.29540000, 0.15240000
7418, 0.30480000, 1.29540000, 0.15240000
7419, 0.38100000, 1.29540000, 0.15240000
7420, 0.45720000, 1.29540000, 0.15240000
7421, 0.53340000, 1.29540000, 0.15240000
7422, 0.60960000, 1.29540000, 0.15240000
7423, 0.68580000, 1.29540000, 0.15240000
7424, 0.76200000, 1.29540000, 0.15240000
7425, 0.83820000, 1.29540000, 0.15240000
7426, 0.91440000, 1.29540000, 0.15240000
7427, 0.99060000, 1.29540000, 0.15240000
7428, 1.06680000, 1.29540000, 0.15240000
7429, 1.14300000, 1.29540000, 0.15240000
7430, 1.21920000, 1.29540000, 0.15240000
7431, 1.29540000, 1.29540000, 0.15240000
7432, 1.37160000, 1.29540000, 0.15240000
7433, 1.44780000, 1.29540000, 0.15240000
7434, 1.52400000, 1.29540000, 0.15240000
7435, 0.00000000, 1.37160000, 0.15240000
7436, 0.07620000, 1.37160000, 0.15240000
7437, 0.15240000, 1.37160000, 0.15240000
7438, 0.22860000, 1.37160000, 0.15240000
7439, 0.30480000, 1.37160000, 0.15240000
7440, 0.38100000, 1.37160000, 0.15240000
7441, 0.45720000, 1.37160000, 0.15240000
7442, 0.53340000, 1.37160000, 0.15240000
7443, 0.60960000, 1.37160000, 0.15240000
7444, 0.68580000, 1.37160000, 0.15240000
7445, 0.76200000, 1.37160000, 0.15240000
7446, 0.83820000, 1.37160000, 0.15240000
7447, 0.91440000, 1.37160000, 0.15240000
7448, 0.99060000, 1.37160000, 0.15240000
7449, 1.06680000, 1.37160000, 0.15240000
7450, 1.14300000, 1.37160000, 0.15240000
7451, 1.21920000, 1.37160000, 0.15240000
7452, 1.29540000, 1.37160000, 0.15240000
7453, 1.37160000, 1.37160000, 0.15240000
7454, 1.44780000, 1.37160000, 0.15240000
7455, 1.52400000, 1.37160000, 0.15240000
7456, 0.00000000, 1.44780000, 0.15240000
7457, 0.07620000, 1.44780000, 0.15240000
7458, 0.15240000, 1.44780000, 0.15240000
7459, 0.22860000, 1.44780000, 0.15240000
7460, 0.30480000, 1.44780000, 0.15240000
7461, 0.38100000, 1.44780000, 0.15240000
7462, 0.45720000, 1.44780000, 0.15240000
7463, 0.53340000, 1.44780000, 0.15240000
7464, 0.60960000, 1.44780000, 0.15240000
7465, 0.68580000, 1.44780000, 0.15240000
7466, 0.76200000, 1.44780000, 0.15240000
7467, 0.83820000, 1.44780000, 0.15240000
7468, 0.91440000, 1.44780000, 0.15240000
7469, 0.99060000, 1.44780000, 0.15240000
7470, 1.06680000, 1.44780000, 0.15240000
7471, 1.14300000, 1.44780000, 0.15240000
7472, 1.21920000, 1.44780000, 0.15240000
7473, 1.29540000, 1.44780000, 0.15240000
7474, 1.37160000, 1.44780000, 0.15240000
7475, 1.44780000, 1.44780000, 0.15240000
7476, 1.52400000, 1.44780000, 0.15240000
7477, 0.00000000, 1.52400000, 0.15240000
7478, 0.07620000, 1.52400000, 0.15240000
7479, 0.15240000, 1.52400000, 0.15240000
7480, 0.22860000, 1.52400000, 0.15240000
7481, 0.30480000, 1.52400000, 0.15240000
7482, 0.38100000, 1.52400000, 0.15240000
7483, 0.45720000, 1.52400000, 0.15240000
7484, 0.53340000, 1.52400000, 0.15240000
7485, 0.60960000, 1.52400000, 0.15240000
7486, 0.68580000, 1.52400000, 0.15240000
7487, 0.76200000, 1.52400000, 0.15240000
7488, 0.83820000, 1.52400000, 0.15240000
7489, 0.91440000, 1.52400000, 0.15240000
7490, 0.99060000, 1.52400000, 0.15240000
7491, 1.06680000, 1.52400000, 0.15240000
7492, 1.14300000, 1.52400000, 0.15240000
7493, 1.21920000, 1.52400000, 0.15240000
7494, 1.29540000, 1.52400000, 0.15240000
7495, 1.37160000, 1.52400000, 0.15240000
7496, 1.44780000, 1.52400000, 0.15240000
7497, 1.52400000, 1.52400000, 0.15240000
*ELEMENT, TYPE=C3D8I
1, 1, 2, 23, 22, 442, 443, 464, 463
2, 2, 3, 24, 23, 443, 444, 465, 464
3, 3, 4, 25, 24, 444, 445, 466, 465
4, 4, 5, 26, 25, 445, 446, 467, 466
5, 5, 6, 27, 26, 446, 447, 468, 467
6, 6, 7, 28, 27, 447, 448, 469, 468
7, 7, 8, 29, 28, 448, 449, 470, 469
8, 8, 9, 30, 29, 449, 450, 471, 470
9, 9, 10, 31, 30, 450, 451, 472, 471
10, 10, 11, 32, 31, 451, 452, 473, 472
11, 11, 12, 33, 32, 452, 453, 474, 473
12, 12, 13, 34, 33, 453, 454, 475, 474
13, 13, 14, 35, 34, 454, 455, 476, 475
14, 14, 15, 36, 35, 455, 456, 477, 476
15, 15, 16, 37, 36, 456, 457, 478, 477
16, 16, 17, 38, 37, 457, 458, 479, 478
17, 17, 18, 39, 38, 458, 459, 480, 479
18, 18, 19, 40, 39, 459, 460, 481, 480
19, 19, 20, 41, 40, 460, 461, 482, 481
20, 20, 21, 42, 41, 461, 462, 483, 482
21, 22, 23, 44, 43, 463, 464, 485, 484
22, 23, 24, 45, 44, 464, 465, 486, 485
23, 24, 25, 46, 45, 465, 466, 487, 486
24, 25, 26, 47, 46, 466, 467, 488, 487
25, 26, 27, 48, 47, 467, 468, 489, 488
26, 27, 28, 49, 48, 468, 469, 490, 489
27, 28, 29, 50, 49, 469, 470, 491, 490
28, 29, 30, 51, 50, 470, 471, 492, 491
29, 30, 31, 52, 51, 471, 472, 493, 492
30, 31, 32, 53, 52, 472, 473, 494, 493
31, 32, 33, 54, 53, 473, 474, 495, 494
32, 33, 34, 55, 54, 474, 475, 496, 495
33, 34, 35, 56, 55, 475, 476, 497, 496
34, 35, 36, 57, 56, 476, 477, 498, 497
35, 36, 37, 58, 57, 477, 478, 499, 498
36, 37, 38, 59, 58, 478, 479, 500, 499
37, 38, 39, 60, 59, 479, 480, 501, 500
38, 39, 40, 61, 60, 480, 481, 502, 501
39, 40, 41, 62, 61, 481, 482, 503, 502
40, 41, 42, 63, 62, 482, 483, 504, 503
41, 43, 44, 65, 64, 484, 485, 506, 505
42, 44, 45, 66, 65, 485, 486, 507, 506
43, 45, 46, 67, 66, 486, 487, 508, 507
44, 46, 47, 68, 67, 487, 488, 509, 508
45, 47, 48, 69, 68, 488, 489, 510, 509
46, 48, 49, 70, 69, 489, 490, 511, 510
47, 49, 50, 71, 70, 490, 491, 512, 511
48, 50, 51, 72, 71, 491, 492, 513, 512
49, 51, 52, 73, 72, 492, 493, 514, 513
50, 52, 53, 74, 73, 493, 494, 515, 514
51, 53, 54, 75, 74, 494, 495, 516, 515
52, 54, 55, 76, 75, 495, 496, 517, 516
53, 55, 56, 77, 76, 496, 497, 518, 517
54, 56, 57, 78, 77, 497, 498, 519, 518
55, 57, 58, 79, 78, 498, 499, 520, 519
56, 58, 59, 80, 79, 499, 500, 521, 520
57, 59, 60, 81, 80, 500, 501, 522, 521
58, 60, 61, 82, 81, 501, 502, 523, 522
59, 61, 62, 83, 82, 502, 503, 524, 523
60, 62, 63, 84, 83, 503, 504, 525, 524
61, 64, 65, 86, 85, 505, 506, 527, 526
62, 65, 66, 87, 86, 506, 507, 528, 527
63, 66, 67, 88, 87, 507, 508, 529, 528
64, 67, 68, 89, 88, 508, 509, 530, 529
65, 68, 69, 90, 89, 509, 510, 531, 530
66, 69, 70, 91, 90, 510, 511, 532, 531
67, 70, 71, 92, 91, 511, 512, 533, 532
68, 71, 72, 93, 92, 512, 513, 534, 533
69, 72, 73, 94, 93, 513, 514, 535, 534
70, 73, 74, 95, 94, 514, 515, 536, 535
71, 74, 75, 96, 95, 515, 516, 537, 536
72, 75, 76, 97, 96, 516, 517, 538, 537
73, 76, 77, 98, 97, 517, 518, 539, 538
74, 77, 78, 99, 98, 518, 519, 540, 539
75, 78, 79, 100, 99, 519, 520, 541, 540
76, 79, 80, 101, 100, 520, 521, 542, 541
77, 80, 81, 102, 101, 521, 522, 543, 542
78, 81, 82, 103, 102, 522, 523, 544, 543
79, 82, 83, 104, 103, 523, 524, 545, 544
80, 83, 84, 105, 104, 524, 525, 546, 545
81, 85, 86, 107, 106, 526, 527, 548, 547
82, 86, 87, 108, 107, 527, 528, 549, 548
83, 87, 88, 109, 108, 528, 529, 550, 549
84, 88, 89, 110, 109, 529, 530, 551, 550
85, 89, 90, 111, 110, 530, 531, 552, 551
86, 90, 91, 112, 111, 531, 532, 553, 552
87, 91, 92, 113, 112, 532, 533, 554, 553
88, 92, 93, 114, 113, 533, 534, 555, 554
89, 93, 94, 115, 114, 534, 535, 556, 555
90, 94, 95, 116, 115, 535, 536, 557, 556
91, 95, 96, 117, 116, 536, 537, 558, 557
92, 96, 97, 118, 117, 537, 538, 559, 558
93, 97, 98, 119, 118, 538, 539, 560, 559
94, 98, 99, 120, 119, 539, 540, 561, 560
95, 99, 100, 121, 120, 540, 541, 562, 561
96, 100, 101, 122, 121, 541, 542, 563, 562
97, 101, 102, 123, 122, 542, 543, 564, 563
98, 102, 103, 124, 123, 543, 544, 565, 564
99, 103, 104, 125, 124, 544, 545, 566, 565
100, 104, 105, 126, 125, 545, 546, 567, 566
101, 106, 107, 128, 127, 547, 548, 569, 568
102, 107, 108, 129, 128, 548, 549, 570, 569
103, 108, 109, 130, 129, 549, 550, 571, 570
104, 109, 110, 131, 130, 550, 551, 572, 571
105, 110, 111, 132, 131, 551, 552, 573, 572
106, 111, 112, 133, 132, 552, 553, 574, 573
107, 112, 113, 134, 133, 553, 554, 575, 574
108, 113, 114, 135, 134, 554, 555, 576, 575
109, 114, 115, 136, 135, 555, 556, 577, 576
110, 115, 116, 137, 136, 556, 557, 578, 577
111, 116, 117, 138, 137, 557, 558, 579, 578
112, 117, 118, 139, 138, 558, 559, 580, 579
113, 118, 119, 140, 139, 559, 560, 581, 580
114, 119, 120, 141, 140, 560, 561, 582, 581
115, 120, 121, 142, 141, 561, 562, 583, 582
116, 121, 122, 143, 142, 562, 563, 584, 583
117, 122, 123, 144, 143, 563, 564, 585, 584
118, 123, 124, 145, 144, 564, 565, 586, 585
119, 124, 125, 146, 145, 565, 566, 587, 586
120, 125, 126, 147, 146, 566, 567, 588, 587
121, 127, 128, 149, 148, 568, 569, 590, 589
122, 128, 129, 150, 149, 569, 570, 591, 590
123, 129, 130, 151, 150, 570, 571, 592, 591
124, 130, 131, 152, 151, 571, 572, 593, 592
125, 131, 132, 153, 152, 572, 573, 594, 593
126, 132, 133, 154, 153, 573, 574, 595, 594
127, 133, 134, 155, 154, 574, 575, 596, 595
128, 134, 135, 156, 155, 575, 576, 597, 596
129, 135, 136, 157, 156, 576, 577, 598, 597
130, 136, 137, 158, 157, 577, 578, 599, 598
131, 137, 138, 159, 158, 578, 579, 600, 599
132, 138, 139, 160, 159, 579, 580, 601, 600
133, 139, 140, 161, 160, 580, 581, 602, 601
134, 140, 141, 162, 161, 581, 582, 603, 602
135, 141, 142, 163, 162, 582, 583, 604, 603
136, 142, 143, 164, 163, 583, 584, 605, 604
137, 143, 144, 165, 164, 584, 585, 606, 605
138, 144, 145, 166, 165, 585, 586, 607, 606
139, 145, 146, 167, 166, 586, 587, 608, 607
140, 146, 147, 168, 167, 587, 588, 609, 608
141, 148, 149, 170, 169, 589, 590, 611, 610
142, 149, 150, 171, 170, 590, 591, 612, 611
143, 150, 151, 172, 171, 591, 592, 613, 612
144, 151, 152, 173, 172, 592, 593, 614, 613
145, 152, 153, 174, 173, 593, 594, 615, 614
146, 153, 154, 175, 174, 594, 595, 616, 615
147, 154, 155, 176, 175, 595, 596, 617, 616
148, 155, 156, 177, 176, 596, 597, 618, 617
149, 156, 157, 178, 177, 597, 598, 619, 618
150, 157, 158, 179, 178, 598, 599, 620, 619
151, 158, 159, 180, 179, 599, 600, 621, 620
152, 159, 160, 181, 180, 600, 601, 622, 621
153, 160, 161, 182, 181, 601, 602, 623, 622
154, 161, 162, 183, 182, 602, 603, 624, 623
155, 162, 163, 184, 183, 603, 604, 625, 624
156, 163, 164, 185, 184, 604, 605, 626, 625
157, 164, 165, 186, 185, 605, 606, 627, 626
158, 165, 166, 187, 186, 606, 607, 628, 627
159, 166, 167, 188, 187, 607, 608, 629, 628
160, 167, 168, 189, 188, 608, 609, 630, 629
161, 169, 170, 191, 190, 610, 611, 632, 631
162, 170, 171, 192, 191, 611, 612, 633, 632
163, 171, 172, 193, 192, 612, 613, 634, 633
164, 172, 173, 194, 193, 613, 614, 635, 634
165, 173, 174, 195, 194, 614, 615, 636, 635
166, 174, 175, 196, 195, 615, 616, 637, 636
167, 175, 176, 197, 196, 616, 617, 638, 637
168, 176, 177, 198, 197, 617, 618, 639, 638
169, 177, 178, 199, 198, 618, 619, 640, 639
170, 178, 179, 200, 199, 619, 620, 641, 640
171, 179, 180, 201, 200, 620, 621, 642, 641
172, 180, 181, 202, 201, 621, 622, 643, 642
173, 181, 182, 203, 202, 622, 623, 644, 643
174, 182, 183, 204, 203, 623, 624, 645, 644
175, 183, 184, 205, 204, 624, 625, 646, 645
176, 184, 185, 206, 205, 625, 626, 647, 646
177, 185, 186, 207, 206, 626, 627, 648, 647
178, 186, 187, 208, 207, 627, 628, 649, 648
179, 187, 188, 209, 208, 628, 629, 650, 649
180, 188, 189, 210, 209, 629, 630, 651, 650
181, 190, 191, 212, 211, 631, 632, 653, 652
182, 191, 192, 213, 212, 632, 633, 654, 653
183, 192, 193, 214, 213, 633, 634, 655, 654
184, 193, 194, 215, 214, 634, 635, 656, 655
185, 194, 195, 216, 215, 635, 636, 657, 656
186, 195, 196, 217, 216, 636, 637, 658, 657
187, 196, 197, 218, 217, 637, 638, 659, 658
188, 197, 198, 219, 218, 638, 639, 660, 659
189, 198, 199, 220, 219, 639, 640, 661, 660
190, 199, 200, 221, 220, 640, 641, 662, 661
191, 200, 201, 222, 221, 641, 642, 663, 662
192, 201, 202, 223, 222, 642, 643, 664, 663
193, 202, 203, 224, 223, 643, 644, 665, 664
194, 203, 204, 225, 224, 644, 645, 666, 665
195, 204, 205, 226, 225, 645, 646, 667, 666
196, 205, 206, 227, 226, 646, 647, 668, 667
197, 206, 207, 228, 227, 647, 648, 669, 668
198, 207, 208, 229, 228, 648, 649, 670, 669
199, 208, 209, 230, 229, 649, 650, 671, 670
200, 209, 210, 231, 230, 650, 651, 672, 671
201, 211, 212, 233, 232, 652, 653, 674, 673
202, 212, 213, 234, 233, 653, 654, 675, 674
203, 213, 214, 235, 234, 654, 655, 676, 675
204, 214, 215, 236, 235, 655, 656, 677, 676
205, 215, 216, 237, 236, 656, 657, 678, 677
206, 216, 217, 238, 237, 657, 658, 679, 678
207, 217, 218, 239, 238, 658, 659, 680, 679
208, 218, 219, 240, 239, 659, 660, 681, 680
209, 219, 220, 241, 240, 660, 661, 682, 681
210, 220, 221, 242, 241, 661, 662, 683, 682
211, 221, 222, 243, 242, 662, 663, 684, 683
212, 222, 223, 244, 243, 663, 664, 685, 684
213, 223, 224, 245, 244, 664, 665, 686, 685
214, 224, 225, 246, 245, 665, 666, 687, 686
215, 225, 226, 247, 246, 666, 667, 688, 687
216, 226, 227, 248, 247, 667, 668, 689, 688
217, 227, 228, 249, 248, 668, 669, 690, 689
218, 228, 229, 250, 249, 669, 670, 691, 690
219, 229, 230, 251, 250, 670, 671, 692, 691
220, 230, 231, 252, 251, 671, 672, 693, 692
221, 232, 233, 254, 253, 673, 674, 695, 694
222, 233, 234, 255, 254, 674, 675, 696, 695
223, 234, 235, 256, 255, 675, 676, 697, 696
224, 235, 236, 257, 256, 676, 677, 698, 697
225, 236, 237, 258, 257, 677, 678, 699, 698
226, 237, 238, 259, 258, 678, 679, 700, 699
227, 238, 239, 260, 259, 679, 680, 701, 700
228, 239, 240, 261, 260, 680, 681, 702, 701
229, 240, 241, 262, 261, 681, 682, 703, 702
230, 241, 242, 263, 262, 682, 683, 704, 703
231, 242, 243, 264, 263, 683, 684, 705, 704
232, 243, 244, 265, 264, 684, 685, 706, 705
233, 244, 245, 266, 265, 685, 686, 707, 706
234, 245, 246, 267, 266, 686, 687, 708, 707
235, 246, 247, 268, 267, 687, 688, 709, 708
236, 247, 248, 269, 268, 688, 689, 710, 709
237, 248, 249, 270, 269, 689, 690, 711, 710
238, 249, 250, 271, 270, 690, 691, 712, 711
239, 250, 251, 272, 271, 691, 692, 713, 712
240, 251, 252, 273, 272, 692, 693, 714, 713
241, 253, 254, 275, 274, 694, 695, 716, 715
242, 254, 255, 276, 275, 695, 696, 717, 716
243, 255, 256, 277, 276, 696, 697, 718, 717
244, 256, 257, 278, 277, 697, 698, 719, 718
245, 257, 258, 279, 278, 698, 699, 720, 719
246, 258, 259, 280, 279, 699, 700, 721, 720
247, 259, 260, 281, 280, 700, 701, 722, 721
248, 260, 261, 282, 281, 701, 702, 723, 722
249, 261, 262, 283, 282, 702, 703, 724, 723
250, 262, 263, 284, 283, 703, 704, 725, 724
251, 263, 264, 285, 284, 704, 705, 726, 725
252, 264, 265, 286, 285, 705, 706, 727, 726
253, 265, 266, 287, 286, 706, 707, 728, 727
254, 266, 267, 288, 287, 707, 708, 729, 728
255, 267, 268, 289, 288, 708, 709, 730, 729
256, 268, 269, 290, 289, 709, 710, 731, 730
257, 269, 270, 291, 290, 710, 711, 732, 731
258, 270, 271, 292, 291, 711, 712, 733, 732
259, 271, 272, 293, 292, 712, 713, 734, 733
260, 272, 273, 294, 293, 713, 714, 735, 734
261, 274, 275, 296, 295, 715, 716, 737, 736
262, 275, 276, 297, 296, 716, 717, 738, 737
263, 276, 277, 298, 297, 717, 718, 739, 738
264, 277, 278, 299, 298, 718, 719, 740, 739
265, 278, 279, 300, 299, 719, 720, 741, 740
266, 279, 280, 301, 300, 720, 721, 742, 741
267, 280, 281, 302, 301, 721, 722, 743, 742
268, 281, 282, 303, 302, 722, 723, 744, 743
269, 282, 283, 304, 303, 723, 724, 745, 744
270, 283, 284, 305, 304, 724, 725, 746, 745
271, 284, 285, 306, 305, 725, 726, 747, 746
272, 285, 286, 307, 306, 726, 727, 748, 747
273, 286, 287, 308, 307, 727, 728, 749, 748
274, 287, 288, 309, 308, 728, 729, 750, 749
275, 288, 289, 310, 309, 729, 730, 751, 750
276, 289, 290, 311, 310, 730, 731, 752, 751
277, 290, 291, 312, 311, 731, 732, 753, 752
278, 291, 292, 313, 312, 732, 733, 754, 753
279, 292, 293, 314, 313, 733, 734, 755, 754
280, 293, 294, 315, 314, 734, 735, 756, 755
281, 295, 296, 317, 316, 736, 737, 758, 757
282, 296, 297, 318, 317, 737, 738, 759, 758
283, 297, 298, 319, 318, 738, 739, 760, 759
284, 298, 299, 320, 319, 739, 740, 761, 760
285, 299, 300, 321, 320, 740, 741, 762, 761
286, 300, 301, 322, 321, 741, 742, 763, 762
287, 301, 302, 323, 322, 742, 743, 764, 763
288, 302, 303, 324, 323, 743, 744, 765, 764
289, 303, 304, 325, 324, 744, 745, 766, 765
290, 304, 305, 326, 325, 745, 746, 767, 766
291, 305, 306, 327, 326, 746, 747, 768, 767
292, 306, 307, 328, 327, 747, 748, 769, 768
293, 307, 308, 329, 328, 748, 749, 770, 769
294, 308, 309, 330, 329, 749, 750, 771, 770
295, 309, 310, 331, 330, 750, 751, 772, 771
296, 310, 311, 332, 331, 751, 752, 773, 772
297, 311, 312, 333, 332, 752, 753, 774, 773
298, 312, 313, 334, 333, 753, 754, 775, 774
299, 313, 314, 335, 334, 754, 755, 776, 775
300, 314, 315, 336, 335, 755, 756, 777, 776
301, 316, 317, 338, 337, 757, 758, 779, 778
302, 317, 318, 339, 338, 758, 759, 780, 779
303, 318, 319, 340, 339, 759, 760, 781, 780
304, 319, 320, 341, 340, 760, 761, 782, 781
305, 320, 321, 342, 341, 761, 762, 783, 782
306, 321, 322, 343, 342, 762, 763, 784, 783
307, 322, 323, 344, 343, 763, 764, 785, 784
308, 323, 324, 345, 344, 764, 765, 786, 785
309, 324, 325, 346, 345, 765, 766, 787, 786
310, 325, 326, 347, 346, 766, 767, 788, 787
311, 326, 327, 348, 347, 767, 768, 789, 788
312, 327, 328, 349, 348, 768, 769, 790, 789
313, 328, 329, 350, 349, 769, 770, 791, 790
314, 329, 330, 351, 350, 770, 771, 792, 791
315, 330, 331, 352, 351, 771, 772, 793, 792
316, 331, 332, 353, 352, 772, 773, 794, 793
317, 332, 333, 354, 353, 773, 774, 795, 794
318, 333, 334, 355, 354, 774, 775, 796, 795
319, 334, 335, 356, 355, 775, 776, 797, 796
320, 335, 336, 357, 356, 776, 777, 798, 797
321, 337, 338, 359, 358, 778, 779, 800, 799
322, 338, 339, 360, 359, 779, 780, 801, 800
323, 339, 340, 361, 360, 780, 781, 802, 801
324, 340, 341, 362, 361, 781, 782, 803, 802
325, 341, 342, 363, 362, 782, 783, 804, 803
326, 342, 343, 364, 363, 783, 784, 805, 804
327, 343, 344, 365, 364, 784, 785, 806, 805
328, 344, 345, 366, 365, 785, 786, 807, 806
329, 345, 346, 367, 366, 786, 787, 808, 807
330, 346, 347, 368, 367, 787, 788, 809, 808
331, 347, 348, 369, 368, 788, 789, 810, 809
332, 348, 349, 370, 369, 789, 790, 811, 810
333, 349, 350, 371, 370, 790, 791, 812, 811
334, 350, 351, 372, 371, 791, 792, 813, 812
335, 351, 352, 373, 372, 792, 793, 814, 813
336, 352, 353, 374, 373, 793, 794, 815, 814
337, 353, 354, 375, 374, 794, 795, 816, 815
338, 354, 355, 376, 375, 795, 796, 817, 816
339, 355, 356, 377, 376, 796, 797, 818, 817
340, 356, 357, 378, 377, 797, 798, 819, 818
341, 358, 359, 380, 379, 799, 800, 821, 820
342, 359, 360, 381, 380, 800, 801, 822, 821
343, 360, 361, 382, 381, 801, 802, 823, 822
344, 361, 362, 383, 382, 802, 803, 824, 823
345, 362, 363, 384, 383, 803, 804, 825, 824
346, 363, 364, 385, 384, 804, 805, 826, 825
347, 364, 365, 386, 385, 805, 806, 827, 826
348, 365, 366, 387, 386, 806, 807, 828, 827
349, 366, 367, 388, 387, 807, 808, 829, 828
350, 367, 368, 389, 388, 808, 809, 830, 829
351, 368, 369, 390, 389, 809, 810, 831, 830
352, 369, 370, 391, 390, 810, 811, 832, 831
353, 370, 371, 392, 391, 811, 812, 833, 832
354, 371, 372, 393, 392, 812, 813, 834, 833
355, 372, 373, 394, 393, 813, 814, 835, 834
356, 373, 374, 395, 394, 814, 815, 836, 835
357, 374, 375, 396, 395, 815, 816, 837, 836
358, 375, 376, 397, 396, 816, 817, 838, 837
359, 376, 377, 398, 397, 817, 818, 839, 838
360, 377, 378, 399, 398, 818, 819, 840, 839
361, 379, 380, 401, 400, 820, 821, 842, 841
362, 380, 381, 402, 401, 821, 822, 843, 842
363, 381, 382, 403, 402, 822, 823, 844, 843
364, 382, 383, 404, 403, 823, 824, 845, 844
365, 383, 384, 405, 404, 824, 825, 846, 845
366, 384, 385, 406, 405, 825, 826, 847, 846
367, 385, 386, 407, 406, 826, 827, 848, 847
368, 386, 387, 408, 407, 827, 828, 849, 848
369, 387, 388, 409, 408, 828, 829, 850, 849
370, 388, 389, 410, 409, 829, 830, 851, 850
371, 389, 390, 411, 410, 830, 831, 852, 851
372, 390, 391, 412, 411, 831, 832, 853, 852
373, 391, 392, 413, 412, 832, 833, 854, 853
374, 392, 393, 414, 413, 833, 834, 855, 854
375, 393, 394, 415, 414, 834, 835, 856, 855
376, 394, 395, 416, 415, 835, 836, 857, 856
377, 395, 396, 417, 416, 836, 837, 858, 857
378, 396, 397, 418, 417, 837, 838, 859, 858
379, 397, 398, 419, 418, 838, 839, 860, 859
380, 398, 399, 420, 419, 839, 840, 861, 860
381, 400, 401, 422, 421, 841, 842, 863, 862
382, 401, 402, 423, 422, 842, 843, 864, 863
383, 402, 403, 424, 423, 843, 844, 865, 864
384, 403, 404, 425, 424, 844, 845, 866, 865
385, 404, 405, 426, 425, 845, 846, 867, 866
386, 405, 406, 427, 426, 846, 847, 868, 867
387, 406, 407, 428, 427, 847, 848, 869, 868
388, 407, 408, 429, 428, 848, 849, 870, 869
389, 408, 409, 430, 429, 849, 850, 871, 870
390, 409, 410, 431, 430, 850, 851, 872, 871
391, 410, 411, 432, 431, 851, 852, 873, 872
392, 411, 412, 433, 432, 852, 853, 874, 873
393, 412, 413, 434, 433, 853, 854, 875, 874
394, 413, 414, 435, 434, 854, 855, 876, 875
395, 414, 415, 436, 435, 855, 856, 877, 876
396, 415, 416, 437, 436, 856, 857, 878, 877
397, 416, 417, 438, 437, 857, 858, 879, 878
398, 417, 418, 439, 438, 858, 859, 880, 879
399, 418, 419, 440, 439, 859, 860, 881, 880
400, 419, 420, 441, 440, 860, 861, 882, 881
401, 442, 443, 464, 463, 883, 884, 905, 904
402, 443, 444, 465, 464, 884, 885, 906, 905
403, 444, 445, 466, 465, 885, 886, 907, 906
404, 445, 446, 467, 466, 886, 887, 908, 907
405, 446, 447, 468, 467, 887, 888, 909, 908
406, 447, 448, 469, 468, 888, 889, 910, 909
407, 448, 449, 470, 469, 889, 890, 911, 910
408, 449, 450, 471, 470, 890, 891, 912, 911
409, 450, 451, 472, 471, 891, 892, 913, 912
410, 451, 452, 473, 472, 892, 893, 914, 913
411, 452, 453, 474, 473, 893, 894, 915, 914
412, 453, 454, 475, 474, 894, 895, 916, 915
413, 454, 455, 476, 475, 895, 896, 917, 916
414, 455, 456, 477, 476, 896, 897, 918, 917
415, 456, 457, 478, 477, 897, 898, 919, 918
416, 457, 458, 479, 478, 898, 899, 920, 919
417, 458, 459, 480, 479, 899, 900, 921, 920
418, 459, 460, 481, 480, 900, 901, 922, 921
419, 460, 461, 482, 481, 901, 902, 923, 922
420, 461, 462, 483, 482, 902, 903, 924, 923
421, 463, 464, 485, 484, 904, 905, 926, 925
422, 464, 465, 486, 485, 905, 906, 927, 926
423, 465, 466, 487, 486, 906, 907, 928, 927
424, 466, 467, 488, 487, 907, 908, 929, 928
425, 467, 468, 489, 488, 908, 909, 930, 929
426, 468, 469, 490, 489, 909, 910, 931, 930
427, 469, 470, 491, 490, 910, 911, 932, 931
428, 470, 471, 492, 491, 911, 912, 933, 932
429, 471, 472, 493, 492, 912, 913, 934, 933
430, 472, 473, 494, 493, 913, 914, 935, 934
431, 473, 474, 495, 494, 914, 915, 936, 935
432, 474, 475, 496, 495, 915, 916, 937, 936
433, 475, 476, 497, 496, 916, 917, 938, 937
434, 476, 477, 498, 497, 917, 918, 939, 938
435, 477, 478, 499, 498, 918, 919, 940, 939
436, 478, 479, 500, 499, 919, 920, 941, 940
437, 479, 480, 501, 500, 920, 921, 942, 941
438, 480, 481, 502, 501, 921, 922, 943, 942
439, 481, 482, 503, 502, 922, 923, 944, 943
440, 482, 483, 504, 503, 923, 924, 945, 944
441, 484, 485, 506, 505, 925, 926, 947, 946
442, 485, 486, 507, 506, 926, 927, 948, 947
443, 486, 487, 508, 507, 927, 928, 949, 948
444, 487, 488, 509, 508, 928, 929, 950, 949
445, 488, 489, 510, 509, 929, 930, 951, 950
446, 489, 490, 511, 510, 930, 931, 952, 951
447, 490, 491, 512, 511, 931, 932, 953, 952
448, 491, 492, 513, 512, 932, 933, 954, 953
449, 492, 493, 514, 513, 933, 934, 955, 954
450, 493, 494, 515, 514, 934, 935, 956, 955
451, 494, 495, 516, 515, 935, 936, 957, 956
452, 495, 496, 517, 516, 936, 937, 958, 957
453, 496, 497, 518, 517, 937, 938, 959, 958
454, 497, 498, 519, 518, 938, 939, 960, 959
455, 498, 499, 520, 519, 939, 940, 961, 960
456, 499, 500, 521, 520, 940, 941, 962, 961
457, 500, 501, 522, 521, 941, 942, 963, 962
458, 501, 502, 523, 522, 942, 943, 964, 963
459, 502, 503, 524, 523, 943, 944, 965, 964
460, 503, 504, 525, 524, 944, 945, 966, 965
461, 505, 506, 527, 526, 946, 947, 968, 967
462, 506, 507, 528, 527, 947, 948, 969, 968
463, 507, 508, 529, 528, 948, 949, 970, 969
464, 508, 509, 530, 529, 949, 950, 971, 970
465, 509, 510, 531, 530, 950, 951, 972, 971
466, 510, 511, 532, 531, 951, 952, 973, 972
467, 511, 512, 533, 532, 952, 953, 974, 973
468, 512, 513, 534, 533, 953, 954, 975, 974
469, 513, 514, 535, 534, 954, 955, 976, 975
470, 514, 515, 536, 535, 955, 956, 977, 976
471, 515, 516, 537, 536, 956, 957, 978, 977
472, 516, 517, 538, 537, 957, 958, 979, 978
473, 517, 518, 539, 538, 958, 959, 980, 979
474, 518, 519, 540, 539, 959, 960, 981, 980
475, 519, 520, 541, 540, 960, 961, 982, 981
476, 520, 521, 542, 541, 961, 962, 983, 982
477, 521, 522, 543, 542, 962, 963, 984, 983
478, 522, 523, 544, 543, 963, 964, 985, 984
479, 523, 524, 545, 544, 964, 965, 986, 985
480, 524, 525, 546, 545, 965, 966, 987, 986
481, 526, 527, 548, 547, 967, 968, 989, 988
482, 527, 528, 549, 548, 968, 969, 990, 989
483, 528, 529, 550, 549, 969, 970, 991, 990
484, 529, 530, 551, 550, 970, 971, 992, 991
485, 530, 531, 552, 551, 971, 972, 993, 992
486, 531, 532, 553, 552, 972, 973, 994, 993
487, 532, 533, 554, 553, 973, 974, 995, 994
488, 533, 534, 555, 554, 974, 975, 996, 995
489, 534, 535, 556, 555, 975, 976, 997, 996
490, 535, 536, 557, 556, 976, 977, 998, 997
491, 536, 537, 558, 557, 977, 978, 999, 998
492, 537, 538, 559, 558, 978, 979, 1000, 999
493, 538, 539, 560, 559, 979, 980, 1001, 1000
494, 539, 540, 561, 560, 980, 981, 1002, 1001
495, 540, 541, 562, 561, 981, 982, 1003, 1002
496, 541, 542, 563, 562, 982, 983, 1004, 1003
497, 542, 543, 564, 563, 983, 984, 1005, 1004
498, 543, 544, 565, 564, 984, 985, 1006, 1005
499, 544, 545, 566, 565, 985, 986, 1007, 1006
500, 545, 546, 567, 566, 986, 987, 1008, 1007
501, 547, 548, 569, 568, 988, 989, 1010, 1009
502, 548, 549, 570, 569, 989, 990, 1011, 1010
503, 549, 550, 571, 570, 990, 991, 1012, 1011
504, 550, 551, 572, 571, 991, 992, 1013, 1012
505, 551, 552, 573, 572, 992, 993, 1014, 1013
506, 552, 553, 574, 573, 993, 994, 1015, 1014
507, 553, 554, 575, 574, 994, 995, 1016, 1015
508, 554, 555, 576, 575, 995, 996, 1017, 1016
509, 555, 556, 577, 576, 996, 997, 1018, 1017
510, 556, 557, 578, 577, 997, 998, 1019, 1018
511, 557, 558, 579, 578, 998, 999, 1020, 1019
512, 558, 559, 580, 579, 999, 1000, 1021, 1020
513, 559, 560, 581, 580, 1000, 1001, 1022, 1021
514, 560, 561, 582, 581, 1001, 1002, 1023, 1022
515, 561, 562, 583, 582, 1002, 1003, 1024, 1023
516, 562, 563, 584, 583, 1003, 1004, 1025, 1024
517, 563, 564, 585, 584, 1004, 1005, 1026, 1025
518, 564, 565, 586, 585, 1005, 1006, 1027, 1026
519, 565, 566, 587, 586, 1006, 1007, 1028, 1027
520, 566, 567, 588, 587, 1007, 1008, 1029, 1028
521, 568, 569, 590, 589, 1009, 1010, 1031, 1030
522, 569, 570, 591, 590, 1010, 1011, 1032, 1031
523, 570, 571, 592, 591, 1011, 1012, 1033, 1032
524, 571, 572, 593, 592, 1012, 1013, 1034, 1033
525, 572, 573, 594, 593, 1013, 1014, 1035, 1034
526, 573, 574, 595, 594, 1014, 1015, 1036, 1035
527, 574, 575, 596, 595, 1015, 1016, 1037, 1036
528, 575, 576, 597, 596, 1016, 1017, 1038, 1037
529, 576, 577, 598, 597, 1017, 1018, 1039, 1038
530, 577, 578, 599, 598, 1018, 1019, 1040, 1039
531, 578, 579, 600, 599, 1019, 1020, 1041, 1040
532, 579, 580, 601, 600, 1020, 1021, 1042, 1041
533, 580, 581, 602, 601, 1021, 1022, 1043, 1042
534, 581, 582, 603, 602, 1022, 1023, 1044, 1043
535, 582, 583, 604, 603, 1023, 1024, 1045, 1044
536, 583, 584, 605, 604, 1024, 1025, 1046, 1045
537, 584, 585, 606, 605, 1025, 1026, 1047, 1046
538, 585, 586, 607, 606, 1026, 1027, 1048, 1047
539, 586, 587, 608, 607, 1027, 1028, 1049, 1048
540, 587, 588, 609, 608, 1028, 1029, 1050, 1049
541, 589, 590, 611, 610, 1030, 1031, 1052, 1051
542, 590, 591, 612, 611, 1031, 1032, 1053, 1052
543, 591, 592, 613, 612, 1032, 1033, 1054, 1053
544, 592, 593, 614, 613, 1033, 1034, 1055, 1054
545, 593, 594, 615, 614, 1034, 1035, 1056, 1055
546, 594, 595, 616, 615, 1035, 1036, 1057, 1056
547, 595, 596, 617, 616, 1036, 1037, 1058, 1057
548, 596, 597, 618, 617, 1037, 1038, 1059, 1058
549, 597, 598, 619, 618, 1038, 1039, 1060, 1059
550, 598, 599, 620, 619, 1039, 1040, 1061, 1060
551, 599, 600, 621, 620, 1040, 1041, 1062, 1061
552, 600, 601, 622, 621, 1041, 1042, 1063, 1062
553, 601, 602, 623, 622, 1042, 1043, 1064, 1063
554, 602, 603, 624, 623, 1043, 1044, 1065, 1064
555, 603, 604, 625, 624, 1044, 1045, 1066, 1065
556, 604, 605, 626, 625, 1045, 1046, 1067, 1066
557, 605, 606, 627, 626, 1046, 1047, 1068, 1067
558, 606, 607, 628, 627, 1047, 1048, 1069, 1068
559, 607, 608, 629, 628, 1048, 1049, 1070, 1069
560, 608, 609, 630, 629, 1049, 1050, 1071, 1070
561, 610, 611, 632, 631, 1051, 1052, 1073, 1072
562, 611, 612, 633, 632, 1052, 1053, 1074, 1073
563, 612, 613, 634, 633, 1053, 1054, 1075, 1074
564, 613, 614, 635, 634, 1054, 1055, 1076, 1075
565, 614, 615, 636, 635, 1055, 1056, 1077, 1076
566, 615, 616, 637, 636, 1056, 1057, 1078, 1077
567, 616, 617, 638, 637, 1057, 1058, 1079, 1078
568, 617, 618, 639, 638, 1058, 1059, 1080, 1079
569, 618, 619, 640, 639, 1059, 1060, 1081, 1080
570, 619, 620, 641, 640, 1060, 1061, 1082, 1081
571, 620, 621, 642, 641, 1061, 1062, 1083, 1082
572, 621, 622, 643, 642, 1062, 1063, 1084, 1083
573, 622, 623, 644, 643, 1063, 1064, 1085, 1084
574, 623, 624, 645, 644, 1064, 1065, 1086, 1085
575, 624, 625, 646, 645, 1065, 1066, 1087, 1086
576, 625, 626, 647, 646, 1066, 1067, 1088, 1087
577, 626, 627, 648, 647, 1067, 1068, 1089, 1088
578, 627, 628, 649, 648, 1068, 1069, 1090, 1089
579, 628, 629, 650, 649, 1069, 1070, 1091, 1090
580, 629, 630, 651, 650, 1070, 1071, 1092, 1091
581, 631, 632, 653, 652, 1072, 1073, 1094, 1093
582, 632, 633, 654, 653, 1073, 1074, 1095, 1094
583, 633, 634, 655, 654, 1074, 1075, 1096, 1095
584, 634, 635, 656, 655, 1075, 1076, 1097, 1096
585, 635, 636, 657, 656, 1076, 1077, 1098, 1097
586, 636, 637, 658, 657, 1077, 1078, 1099, 1098
587, 637, 638, 659, 658, 1078, 1079, 1100, 1099
588, 638, 639, 660, 659, 1079, 1080, 1101, 1100
589, 639, 640, 661, 660, 1080, 1081, 1102, 1101
590, 640, 641, 662, 661, 1081, 1082, 1103, 1102
591, 641, 642, 663, 662, 1082, 1083, 1104, 1103
592, 642, 643, 664, 663, 1083, 1084, 1105, 1104
593, 643, 644, 665, 664, 1084, 1085, 1106, 1105
594, 644, 645, 666, 665, 1085, 1086, 1107, 1106
595, 645, 646, 667, 666, 1086, 1087, 1108, 1107
596, 646, 647, 668, 667, 1087, 1088, 1109, 1108
597, 647, 648, 669, 668, 1088, 1089, 1110, 1109
598, 648, 649, 670, 669, 1089, 1090, 1111, 1110
599, 649, 650, 671, 670, 1090, 1091, 1112, 1111
600, 650, 651, 672, 671, 1091, 1092, 1113, 1112
601, 652, 653, 674, 673, 1093, 1094, 1115, 1114
602, 653, 654, 675, 674, 1094, 1095, 1116, 1115
603, 654, 655, 676, 675, 1095, 1096, 1117, 1116
604, 655, 656, 677, 676, 1096, 1097, 1118, 1117
605, 656, 657, 678, 677, 1097, 1098, 1119, 1118
606, 657, 658, 679, 678, 1098, 1099, 1120, 1119
607, 658, 659, 680, 679, 1099, 1100, 1121, 1120
608, 659, 660, 681, 680, 1100, 1101, 1122, 1121
609, 660, 661, 682, 681, 1101, 1102, 1123, 1122
610, 661, 662, 683, 682, 1102, 1103, 1124, 1123
611, 662, 663, 684, 683, 1103, 1104, 1125, 1124
612, 663, 664, 685, 684, 1104, 1105, 1126, 1125
613, 664, 665, 686, 685, 1105, 1106, 1127, 1126
614, 665, 666, 687, 686, 1106, 1107, 1128, 1127
615, 666, 667, 688, 687, 1107, 1108, 1129, 1128
616, 667, 668, 689, 688, 1108, 1109, 1130, 1129
617, 668, 669, 690, 689, 1109, 1110, 1131, 1130
618, 669, 670, 691, 690, 1110, 1111, 1132, 1131
619, 670, 671, 692, 691, 1111, 1112, 1133, 1132
620, 671, 672, 693, 692, 1112, 1113, 1134, 1133
621, 673, 674, 695, 694, 1114, 1115, 1136, 1135
622, 674, 675, 696, 695, 1115, 1116, 1137, 1136
623, 675, 676, 697, 696, 1116, 1117, 1138, 1137
624, 676, 677, 698, 697, 1117, 1118, 1139, 1138
625, 677, 678, 699, 698, 1118, 1119, 1140, 1139
626, 678, 679, 700, 699, 1119, 1120, 1141, 1140
627, 679, 680, 701, 700, 1120, 1121, 1142, 1141
628, 680, 681, 702, 701, 1121, 1122, 1143, 1142
629, 681, 682, 703, 702, 1122, 1123, 1144, 1143
630, 682, 683, 704, 703, 1123, 1124, 1145, 1144
631, 683, 684, 705, 704, 1124, 1125, 1146, 1145
632, 684, 685, 706, 705, 1125, 1126, 1147, 1146
633, 685, 686, 707, 706, 1126, 1127, 1148, 1147
634, 686, 687, 708, 707, 1127, 1128, 1149, 1148
635, 687, 688, 709, 708, 1128, 1129, 1150, 1149
636, 688, 689, 710, 709, 1129, 1130, 1151, 1150
637, 689, 690, 711, 710, 1130, 1131, 1152, 1151
638, 690, 691, 712, 711, 1131, 1132, 1153, 1152
639, 691, 692, 713, 712, 1132, 1133, 1154, 1153
640, 692, 693, 714, 713, 1133, 1134, 1155, 1154
641, 694, 695, 716, 715, 1135, 1136, 1157, 1156
642, 695, 696, 717, 716, 1136, 1137, 1158, 1157
643, 696, 697, 718, 717, 1137, 1138, 1159, 1158
644, 697, 698, 719, 718, 1138, 1139, 1160, 1159
645, 698, 699, 720, 719, 1139, 1140, 1161, 1160
646, 699, 700, 721, 720, 1140, 1141, 1162, 1161
647, 700, 701, 722, 721, 1141, 1142, 1163, 1162
648, 701, 702, 723, 722, 1142, 1143, 1164, 1163
649, 702, 703, 724, 723, 1143, 1144, 1165, 1164
650, 703, 704, 725, 724, 1144, 1145, 1166, 1165
651, 704, 705, 726, 725, 1145, 1146, 1167, 1166
652, 705, 706, 727, 726, 1146, 1147, 1168, 1167
653, 706, 707, 728, 727, 1147, 1148, 1169, 1168
654, 707, 708, 729, 728, 1148, 1149, 1170, 1169
655, 708, 709, 730, 729, 1149, 1150, 1171, 1170
656, 709, 710, 731, 730, 1150, 1151, 1172, 1171
657, 710, 711, 732, 731, 1151, 1152, 1173, 1172
658, 711, 712, 733, 732, 1152, 1153, 1174, 1173
659, 712, 713, 734, 733, 1153, 1154, 1175, 1174
660, 713, 714, 735, 734, 1154, 1155, 1176, 1175
661, 715, 716, 737, 736, 1156, 1157, 1178, 1177
662, 716, 717, 738, 737, 1157, 1158, 1179, 1178
663, 717, 718, 739, 738, 1158, 1159, 1180, 1179
664, 718, 719, 740, 739, 1159, 1160, 1181, 1180
665, 719, 720, 741, 740, 1160, 1161, 1182, 1181
666, 720, 721, 742, 741, 1161, 1162, 1183, 1182
667, 721, 722, 743, 742, 1162, 1163, 1184, 1183
668, 722, 723, 744, 743, 1163, 1164, 1185, 1184
669, 723, 724, 745, 744, 1164, 1165, 1186, 1185
670, 724, 725, 746, 745, 1165, 1166, 1187, 1186
671, 725, 726, 747, 746, 1166, 1167, 1188, 1187
672, 726, 727, 748, 747, 1167, 1168, 1189, 1188
673, 727, 728, 749, 748, 1168, 1169, 1190, 1189
674, 728, 729, 750, 749, 1169, 1170, 1191, 1190
675, 729, 730, 751, 750, 1170, 1171, 1192, 1191
676, 730, 731, 752, 751, 1171, 1172, 1193, 1192
677, 731, 732, 753, 752, 1172, 1173, 1194, 1193
678, 732, 733, 754, 753, 1173, 1174, 1195, 1194
679, 733, 734, 755, 754, 1174, 1175, 1196, 1195
680, 734, 735, 756, 755, 1175, 1176, 1197, 1196
681, 736, 737, 758, 757, 1177, 1178, 1199, 1198
682, 737, 738, 759, 758, 1178, 1179, 1200, 1199
683, 738, 739, 760, 759, 1179, 1180, 1201, 1200
684, 739, 740, 761, 760, 1180, 1181, 1202, 1201
685, 740, 741, 762, 761, 1181, 1182, 1203, 1202
686, 741, 742, 763, 762, 1182, 1183, 1204, 1203
687, 742, 743, 764, 763, 1183, 1184, 1205, 1204
688, 743, 744, 765, 764, 1184, 1185, 1206, 1205
689, 744, 745, 766, 765, 1185, 1186, 1207, 1206
690, 745, 746, 767, 766, 1186, 1187, 1208, 1207
691, 746, 747, 768, 767, 1187, 1188, 1209, 1208
692, 747, 748, 769, 768, 1188, 1189, 1210, 1209
693, 748, 749, 770, 769, 1189, 1190, 1211, 1210
694, 749, 750, 771, 770, 1190, 1191, 1212, 1211
695, 750, 751, 772, 771, 1191, 1192, 1213, 1212
696, 751, 752, 773, 772, 1192, 1193, 1214, 1213
697, 752, 753, 774, 773, 1193, 1194, 1215, 1214
698, 753, 754, 775, 774, 1194, 1195, 1216, 1215
699, 754, 755, 776, 775, 1195, 1196, 1217, 1216
700, 755, 756, 777, 776, 1196, 1197, 1218, 1217
701, 757, 758, 779, 778, 1198, 1199, 1220, 1219
702, 758, 759, 780, 779, 1199, 1200, 1221, 1220
703, 759, 760, 781, 780, 1200, 1201, 1222, 1221
704, 760, 761, 782, 781, 1201, 1202, 1223, 1222
705, 761, 762, 783, 782, 1202, 1203, 1224, 1223
706, 762, 763, 784, 783, 1203, 1204, 1225, 1224
707, 763, 764, 785, 784, 1204, 1205, 1226, 1225
708, 764, 765, 786, 785, 1205, 1206, 1227, 1226
709, 765, 766, 787, 786, 1206, 1207, 1228, 1227
710, 766, 767, 788, 787, 1207, 1208, 1229, 1228
711, 767, 768, 789, 788, 1208, 1209, 1230, 1229
712, 768, 769, 790, 789, 1209, 1210, 1231, 1230
713, 769, 770, 791, 790, 1210, 1211, 1232, 1231
714, 770, 771, 792, 791, 1211, 1212, 1233, 1232
715, 771, 772, 793, 792, 1212, 1213, 1234, 1233
716, 772, 773, 794, 793, 1213, 1214, 1235, 1234
717, 773, 774, 795, 794, 1214, 1215, 1236, 1235
718, 774, 775, 796, 795, 1215, 1216, 1237, 1236
719, 775, 776, 797, 796, 1216, 1217, 1238, 1237
720, 776, 777, 798, 797, 1217, 1218, 1239, 1238
721, 778, 779, 800, 799, 1219, 1220, 1241, 1240
722, 779, 780, 801, 800, 1220, 1221, 1242, 1241
723, 780, 781, 802, 801, 1221, 1222, 1243, 1242
724, 781, 782, 803, 802, 1222, 1223, 1244, 1243
725, 782, 783, 804, 803, 1223, 1224, 1245, 1244
726, 783, 784, 805, 804, 1224, 1225, 1246, 1245
727, 784, 785, 806, 805, 1225, 1226, 1247, 1246
728, 785, 786, 807, 806, 1226, 1227, 1248, 1247
729, 786, 787, 808, 807, 1227, 1228, 1249, 1248
730, 787, 788, 809, 808, 1228, 1229, 1250, 1249
731, 788, 789, 810, 809, 1229, 1230, 1251, 1250
732, 789, 790, 811, 810, 1230, 1231, 1252, 1251
733, 790, 791, 812, 811, 1231, 1232, 1253, 1252
734, 791, 792, 813, 812, 1232, 1233, 1254, 1253
735, 792, 793, 814, 813, 1233, 1234, 1255, 1254
736, 793, 794, 815, 814, 1234, 1235, 1256, 1255
737, 794, 795, 816, 815, 1235, 1236, 1257, 1256
738, 795, 796, 817, 816, 1236, 1237, 1258, 1257
739, 796, 797, 818, 817, 1237, 1238, 1259, 1258
740, 797, 798, 819, 818, 1238, 1239, 1260, 1259
741, 799, 800, 821, 820, 1240, 1241, 1262, 1261
742, 800, 801, 822, 821, 1241, 1242, 1263, 1262
743, 801, 802, 823, 822, 1242, 1243, 1264, 1263
744, 802, 803, 824, 823, 1243, 1244, 1265, 1264
745, 803, 804, 825, 824, 1244, 1245, 1266, 1265
746, 804, 805, 826, 825, 1245, 1246, 1267, 1266
747, 805, 806, 827, 826, 1246, 1247, 1268, 1267
748, 806, 807, 828, 827, 1247, 1248, 1269, 1268
749, 807, 808, 829, 828, 1248, 1249, 1270, 1269
750, 808, 809, 830, 829, 1249, 1250, 1271, 1270
751, 809, 810, 831, 830, 1250, 1251, 1272, 1271
752, 810, 811, 832, 831, 1251, 1252, 1273, 1272
753, 811, 812, 833, 832, 1252, 1253, 1274, 1273
754, 812, 813, 834, 833, 1253, 1254, 1275, 1274
755, 813, 814, 835, 834, 1254, 1255, 1276, 1275
756, 814, 815, 836, 835, 1255, 1256, 1277, 1276
757, 815, 816, 837, 836, 1256, 1257, 1278, 1277
758, 816, 817, 838, 837, 1257, 1258, 1279, 1278
759, 817, 818, 839, 838, 1258, 1259, 1280, 1279
760, 818, 819, 840, 839, 1259, 1260, 1281, 1280
761, 820, 821, 842, 841, 1261, 1262, 1283, 1282
762, 821, 822, 843, 842, 1262, 1263, 1284, 1283
763, 822, 823, 844, 843, 1263, 1264, 1285, 1284
764, 823, 824, 845, 844, 1264, 1265, 1286, 1285
765, 824, 825, 846, 845, 1265, 1266, 1287, 1286
766, 825, 826, 847, 846, 1266, 1267, 1288, 1287
767, 826, 827, 848, 847, 1267, 1268, 1289, 1288
768, 827, 828, 849, 848, 1268, 1269, 1290, 1289
769, 828, 829, 850, 849, 1269, 1270, 1291, 1290
770, 829, 830, 851, 850, 1270, 1271, 1292, 1291
771, 830, 831, 852, 851, 1271, 1272, 1293, 1292
772, 831, 832, 853, 852, 1272, 1273, 1294, 1293
773, 832, 833, 854, 853, 1273, 1274, 1295, 1294
774, 833, 834, 855, 854, 1274, 1275, 1296, 1295
775, 834, 835, 856, 855, 1275, 1276, 1297, 1296
776, 835, 836, 857, 856, 1276, 1277, 1298, 1297
777, 836, 837, 858, 857, 1277, 1278, 1299, 1298
778, 837, 838, 859, 858, 1278, 1279, 1300, 1299
779, 838, 839, 860, 859, 1279, 1280, 1301, 1300
780, 839, 840, 861, 860, 1280, 1281, 1302, 1301
781, 841, 842, 863, 862, 1282, 1283, 1304, 1303
782, 842, 843, 864, 863, 1283, 1284, 1305, 1304
783, 843, 844, 865, 864, 1284, 1285, 1306, 1305
784, 844, 845, 866, 865, 1285, 1286, 1307, 1306
785, 845, 846, 867, 866, 1286, 1287, 1308, 1307
786, 846, 847, 868, 867, 1287, 1288, 1309, 1308
787, 847, 848, 869, 868, 1288, 1289, 1310, 1309
788, 848, 849, 870, 869, 1289, 1290, 1311, 1310
789, 849, 850, 871, 870, 1290, 1291, 1312, 1311
790, 850, 851, 872, 871, 1291, 1292, 1313, 1312
791, 851, 852, 873, 872, 1292, 1293, 1314, 1313
792, 852, 853, 874, 873, 1293, 1294, 1315, 1314
793, 853, 854, 875, 874, 1294, 1295, 1316, 1315
794, 854, 855, 876, 875, 1295, 1296, 1317, 1316
795, 855, 856, 877, 876, 1296, 1297, 1318, 1317
796, 856, 857, 878, 877, 1297, 1298, 1319, 1318
797, 857, 858, 879, 878, 1298, 1299, 1320, 1319
798, 858, 859, 880, 879, 1299, 1300, 1321, 1320
799, 859, 860, 881, 880, 1300, 1301, 1322, 1321
800, 860, 861, 882, 881, 1301, 1302, 1323, 1322
801, 883, 884, 905, 904, 1324, 1325, 1346, 1345
802, 884, 885, 906, 905, 1325, 1326, 1347, 1346
803, 885, 886, 907, 906, 1326, 1327, 1348, 1347
804, 886, 887, 908, 907, 1327, 1328, 1349, 1348
805, 887, 888, 909, 908, 1328, 1329, 1350, 1349
806, 888, 889, 910, 909, 1329, 1330, 1351, 1350
807, 889, 890, 911, 910, 1330, 1331, 1352, 1351
808, 890, 891, 912, 911, 1331, 1332, 1353, 1352
809, 891, 892, 913, 912, 1332, 1333, 1354, 1353
810, 892, 893, 914, 913, 1333, 1334, 1355, 1354
811, 893, 894, 915, 914, 1334, 1335, 1356, 1355
812, 894, 895, 916, 915, 1335, 1336, 1357, 1356
813, 895, 896, 917, 916, 1336, 1337, 1358, 1357
814, 896, 897, 918, 917, 1337, 1338, 1359, 1358
815, 897, 898, 919, 918, 1338, 1339, 1360, 1359
816, 898, 899, 920, 919, 1339, 1340, 1361, 1360
817, 899, 900, 921, 920, 1340, 1341, 1362, 1361
818, 900, 901, 922, 921, 1341, 1342, 1363, 1362
819, 901, 902, 923, 922, 1342, 1343, 1364, 1363
820, 902, 903, 924, 923, 1343, 1344, 1365, 1364
821, 904, 905, 926, 925, 1345, 1346, 1367, 1366
822, 905, 906, 927, 926, 1346, 1347, 1368, 1367
823, 906, 907, 928, 927, 1347, 1348, 1369, 1368
824, 907, 908, 929, 928, 1348, 1349, 1370, 1369
825, 908, 909, 930, 929, 1349, 1350, 1371, 1370
826, 909, 910, 931, 930, 1350, 1351, 1372, 1371
827, 910, 911, 932, 931, 1351, 1352, 1373, 1372
828, 911, 912, 933, 932, 1352, 1353, 1374, 1373
829, 912, 913, 934, 933, 1353, 1354, 1375, 1374
830, 913, 914, 935, 934, 1354, 1355, 1376, 1375
831, 914, 915, 936, 935, 1355, 1356, 1377, 1376
832, 915, 916, 937, 936, 1356, 1357, 1378, 1377
833, 916, 917, 938, 937, 1357, 1358, 1379, 1378
834, 917, 918, 939, 938, 1358, 1359, 1380, 1379
835, 918, 919, 940, 939, 1359, 1360, 1381, 1380
836, 919, 920, 941, 940, 1360, 1361, 1382, 1381
837, 920, 921, 942, 941, 1361, 1362, 1383, 1382
838, 921, 922, 943, 942, 1362, 1363, 1384, 1383
839, 922, 923, 944, 943, 1363, 1364, 1385, 1384
840, 923, 924, 945, 944, 1364, 1365, 1386, 1385
841, 925, 926, 947, 946, 1366, 1367, 1388, 1387
842, 926, 927, 948, 947, 1367, 1368, 1389, 1388
843, 927, 928, 949, 948, 1368, 1369, 1390, 1389
844, 928, 929, 950, 949, 1369, 1370, 1391, 1390
845, 929, 930, 951, 950, 1370, 1371, 1392, 1391
846, 930, 931, 952, 951, 1371, 1372, 1393, 1392
847, 931, 932, 953, 952, 1372, 1373, 1394, 1393
848, 932, 933, 954, 953, 1373, 1374, 1395, 1394
849, 933, 934, 955, 954, 1374, 1375, 1396, 1395
850, 934, 935, 956, 955, 1375, 1376, 1397, 1396
851, 935, 936, 957, 956, 1376, 1377, 1398, 1397
852, 936, 937, 958, 957, 1377, 1378, 1399, 1398
853, 937, 938, 959, 958, 1378, 1379, 1400, 1399
854, 938, 939, 960, 959, 1379, 1380, 1401, 1400
855, 939, 940, 961, 960, 1380, 1381, 1402, 1401
856, 940, 941, 962, 961, 1381, 1382, 1403, 1402
857, 941, 942, 963, 962, 1382, 1383, 1404, 1403
858, 942, 943, 964, 963, 1383, 1384, 1405, 1404
859, 943, 944, 965, 964, 1384, 1385, 1406, 1405
860, 944, 945, 966, 965, 1385, 1386, 1407, 1406
861, 946, 947, 968, 967, 1387, 1388, 1409, 1408
862, 947, 948, 969, 968, 1388, 1389, 1410, 1409
863, 948, 949, 970, 969, 1389, 1390, 1411, 1410
864, 949, 950, 971, 970, 1390, 1391, 1412, 1411
865, 950, 951, 972, 971, 1391, 1392, 1413, 1412
866, 951, 952, 973, 972, 1392, 1393, 1414, 1413
867, 952, 953, 974, 973, 1393, 1394, 1415, 1414
868, 953, 954, 975, 974, 1394, 1395, 1416, 1415
869, 954, 955, 976, 975, 1395, 1396, 1417, 1416
870, 955, 956, 977, 976, 1396, 1397, 1418, 1417
871, 956, 957, 978, 977, 1397, 1398, 1419, 1418
872, 957, 958, 979, 978, 1398, 1399, 1420, 1419
873, 958, 959, 980, 979, 1399, 1400, 1421, 1420
874, 959, 960, 981, 980, 1400, 1401, 1422, 1421
875, 960, 961, 982, 981, 1401, 1402, 1423, 1422
876, 961, 962, 983, 982, 1402, 1403, 1424, 1423
877, 962, 963, 984, 983, 1403, 1404, 1425, 1424
878, 963, 964, 985, 984, 1404, 1405, 1426, 1425
879, 964, 965, 986, 985, 1405, 1406, 1427, 1426
880, 965, 966, 987, 986, 1406, 1407, 1428, 1427
881, 967, 968, 989, 988, 1408, 1409, 1430, 1429
882, 968, 969, 990, 989, 1409, 1410, 1431, 1430
883, 969, 970, 991, 990, 1410, 1411, 1432, 1431
884, 970, 971, 992, 991, 1411, 1412, 1433, 1432
885, 971, 972, 993, 992, 1412, 1413, 1434, 1433
886, 972, 973, 994, 993, 1413, 1414, 1435, 1434
887, 973, 974, 995, 994, 1414, 1415, 1436, 1435
888, 974, 975, 996, 995, 1415, 1416, 1437, 1436
889, 975, 976, 997, 996, 1416, 1417, 1438, 1437
890, 976, 977, 998, 997, 1417, 1418, 1439, 1438
891, 977, 978, 999, 998, 1418, 1419, 1440, 1439
892, 978, 979, 1000, 999, 1419, 1420, 1441, 1440
893, 979, 980, 1001, 1000, 1420, 1421, 1442, 1441
894, 980, 981, 1002, 1001, 1421, 1422, 1443, 1442
895, 981, 982, 1003, 1002, 1422, 1423, 1444, 1443
896, 982, 983, 1004, 1003, 1423, 1424, 1445, 1444
897, 983, 984, 1005, 1004, 1424, 1425, 1446, 1445
898, 984, 985, 1006, 1005, 1425, 1426, 1447, 1446
899, 985, 986, 1007, 1006, 1426, 1427, 1448, 1447
900, 986, 987, 1008, 1007, 1427, 1428, 1449, 1448
901, 988, 989, 1010, 1009, 1429, 1430, 1451, 1450
902, 989, 990, 1011, 1010, 1430, 1431, 1452, 1451
903, 990, 991, 1012, 1011, 1431, 1432, 1453, 1452
904, 991, 992, 1013, 1012, 1432, 1433, 1454, 1453
905, 992, 993, 1014, 1013, 1433, 1434, 1455, 1454
906, 993, 994, 1015, 1014, 1434, 1435, 1456, 1455
907, 994, 995, 1016, 1015, 1435, 1436, 1457, 1456
908, 995, 996, 1017, 1016, 1436, 1437, 1458, 1457
909, 996, 997, 1018, 1017, 1437, 1438, 1459, 1458
910, 997, 998, 1019, 1018, 1438, 1439, 1460, 1459
911, 998, 999, 1020, 1019, 1439, 1440, 1461, 1460
912, 999, 1000, 1021, 1020, 1440, 1441, 1462, 1461
913, 1000, 1001, 1022, 1021, 1441, 1442, 1463, 1462
914, 1001, 1002, 1023, 1022, 1442, 1443, 1464, 1463
915, 1002, 1003, 1024, 1023, 1443, 1444, 1465, 1464
916, 1003, 1004, 1025, 1024, 1444, 1445, 1466, 1465
917, 1004, 1005, 1026, 1025, 1445, 1446, 1467, 1466
918, 1005, 1006, 1027, 1026, 1446, 1447, 1468, 1467
919, 1006, 1007, 1028, 1027, 1447, 1448, 1469, 1468
920, 1007, 1008, 1029, 1028, 1448, 1449, 1470, 1469
921, 1009, 1010, 1031, 1030, 1450, 1451, 1472, 1471
922, 1010, 1011, 1032, 1031, 1451, 1452, 1473, 1472
923, 1011, 1012, 1033, 1032, 1452, 1453, 1474, 1473
924, 1012, 1013, 1034, 1033, 1453, 1454, 1475, 1474
925, 1013, 1014, 1035, 1034, 1454, 1455, 1476, 1475
926, 1014, 1015, 1036, 1035, 1455, 1456, 1477, 1476
927, 1015, 1016, 1037, 1036, 1456, 1457, 1478, 1477
928, 1016, 1017, 1038, 1037, 1457, 1458, 1479, 1478
929, 1017, 1018, 1039, 1038, 1458, 1459, 1480, 1479
930, 1018, 1019, 1040, 1039, 1459, 1460, 1481, 1480
931, 1019, 1020, 1041, 1040, 1460, 1461, 1482, 1481
932, 1020, 1021, 1042, 1041, 1461, 1462, 1483, 1482
933, 1021, 1022, 1043, 1042, 1462, 1463, 1484, 1483
934, 1022, 1023, 1044, 1043, 1463, 1464, 1485, 1484
935, 1023, 1024, 1045, 1044, 1464, 1465, 1486, 1485
936, 1024, 1025, 1046, 1045, 1465, 1466, 1487, 1486
937, 1025, 1026, 1047, 1046, 1466, 1467, 1488, 1487
938, 1026, 1027, 1048, 1047, 1467, 1468, 1489, 1488
939, 1027, 1028, 1049, 1048, 1468, 1469, 1490, 1489
940, 1028, 1029, 1050, 1049, 1469, 1470, 1491, 1490
941, 1030, 1031, 1052, 1051, 1471, 1472, 1493, 1492
942, 1031, 1032, 1053, 1052, 1472, 1473, 1494, 1493
943, 1032, 1033, 1054, 1053, 1473, 1474, 1495, 1494
944, 1033, 1034, 1055, 1054, 1474, 1475, 1496, 1495
945, 1034, 1035, 1056, 1055, 1475, 1476, 1497, 1496
946, 1035, 1036, 1057, 1056, 1476, 1477, 1498, 1497
947, 1036, 1037, 1058, 1057, 1477, 1478, 1499, 1498
948, 1037, 1038, 1059, 1058, 1478, 1479, 1500, 1499
949, 1038, 1039, 1060, 1059, 1479, 1480, 1501, 1500
950, 1039, 1040, 1061, 1060, 1480, 1481, 1502, 1501
951, 1040, 1041, 1062, 1061, 1481, 1482, 1503, 1502
952, 1041, 1042, 1063, 1062, 1482, 1483, 1504, 1503
953, 1042, 1043, 1064, 1063, 1483, 1484, 1505, 1504
954, 1043, 1044, 1065, 1064, 1484, 1485, 1506, 1505
955, 1044, 1045, 1066, 1065, 1485, 1486, 1507, 1506
956, 1045, 1046, 1067, 1066, 1486, 1487, 1508, 1507
957, 1046, 1047, 1068, 1067, 1487, 1488, 1509, 1508
958, 1047, 1048, 1069, 1068, 1488, 1489, 1510, 1509
959, 1048, 1049, 1070, 1069, 1489, 1490, 1511, 1510
960, 1049, 1050, 1071, 1070, 1490, 1491, 1512, 1511
961, 1051, 1052, 1073, 1072, 1492, 1493, 1514, 1513
962, 1052, 1053, 1074, 1073, 1493, 1494, 1515, 1514
963, 1053, 1054, 1075, 1074, 1494, 1495, 1516, 1515
964, 1054, 1055, 1076, 1075, 1495, 1496, 1517, 1516
965, 1055, 1056, 1077, 1076, 1496, 1497, 1518, 1517
966, 1056, 1057, 1078, 1077, 1497, 1498, 1519, 1518
967, 1057, 1058, 1079, 1078, 1498, 1499, 1520, 1519
968, 1058, 1059, 1080, 1079, 1499, 1500, 1521, 1520
969, 1059, 1060, 1081, 1080, 1500, 1501, 1522, 1521
970, 1060, 1061, 1082, 1081, 1501, 1502, 1523, 1522
971, 1061, 1062, 1083, 1082, 1502, 1503, 1524, 1523
972, 1062, 1063, 1084, 1083, 1503, 1504, 1525, 1524
973, 1063, 1064, 1085, 1084, 1504, 1505, 1526, 1525
974, 1064, 1065, 1086, 1085, 1505, 1506, 1527, 1526
975, 1065, 1066, 1087, 1086, 1506, 1507, 1528, 1527
976, 1066, 1067, 1088, 1087, 1507, 1508, 1529, 1528
977, 1067, 1068, 1089, 1088, 1508, 1509, 1530, 1529
978, 1068, 1069, 1090, 1089, 1509, 1510, 1531, 1530
979, 1069, 1070, 1091, 1090, 1510, 1511, 1532, 1531
980, 1070, 1071, 1092, 1091, 1511, 1512, 1533, 1532
981, 1072, 1073, 1094, 1093, 1513, 1514, 1535, 1534
982, 1073, 1074, 1095, 1094, 1514, 1515, 1536, 1535
983, 1074, 1075, 1096, 1095, 1515, 1516, 1537, 1536
984, 1075, 1076, 1097, 1096, 1516, 1517, 1538, 1537
985, 1076, 1077, 1098, 1097, 1517, 1518, 1539, 1538
986, 1077, 1078, 1099, 1098, 1518, 1519, 1540, 1539
987, 1078, 1079, 1100, 1099, 1519, 1520, 1541, 1540
988, 1079, 1080, 1101, 1100, 1520, 1521, 1542, 1541
989, 1080, 1081, 1102, 1101, 1521, 1522, 1543, 1542
990, 1081, 1082, 1103, 1102, 1522, 1523, 1544, 1543
991, 1082, 1083, 1104, 1103, 1523, 1524, 1545, 1544
992, 1083, 1084, 1105, 1104, 1524, 1525, 1546, 1545
993, 1084, 1085, 1106, 1105, 1525, 1526, 1547, 1546
994, 1085, 1086, 1107, 1106, 1526, 1527, 1548, 1547
995, 1086, 1087, 1108, 1107, 1527, 1528, 1549, 1548
996, 1087, 1088, 1109, 1108, 1528, 1529, 1550, 1549
997, 1088, 1089, 1110, 1109, 1529, 1530, 1551, 1550
998, 1089, 1090, 1111, 1110, 1530, 1531, 1552, 1551
999, 1090, 1091, 1112, 1111, 1531, 1532, 1553, 1552
1000, 1091, 1092, 1113, 1112, 1532, 1533, 1554, 1553
1001, 1093, 1094, 1115, 1114, 1534, 1535, 1556, 1555
1002, 1094, 1095, 1116, 1115, 1535, 1536, 1557, 1556
1003, 1095, 1096, 1117, 1116, 1536, 1537, 1558, 1557
1004, 1096, 1097, 1118, 1117, 1537, 1538, 1559, 1558
1005, 1097, 1098, 1119, 1118, 1538, 1539, 1560, 1559
1006, 1098, 1099, 1120, 1119, 1539, 1540, 1561, 1560
1007, 1099, 1100, 1121, 1120, 1540, 1541, 1562, 1561
1008, 1100, 1101, 1122, 1121, 1541, 1542, 1563, 1562
1009, 1101, 1102, 1123, 1122, 1542, 1543, 1564, 1563
1010, 1102, 1103, 1124, 1123, 1543, 1544, 1565, 1564
1011, 1103, 1104, 1125, 1124, 1544, 1545, 1566, 1565
1012, 1104, 1105, 1126, 1125, 1545, 1546, 1567, 1566
1013, 1105, 1106, 1127, 1126, 1546, 1547, 1568, 1567
1014, 1106, 1107, 1128, 1127, 1547, 1548, 1569, 1568
1015, 1107, 1108, 1129, 1128, 1548, 1549, 1570, 1569
1016, 1108, 1109, 1130, 1129, 1549, 1550, 1571, 1570
1017, 1109, 1110, 1131, 1130, 1550, 1551, 1572, 1571
1018, 1110, 1111, 1132, 1131, 1551, 1552, 1573, 1572
1019, 1111, 1112, 1133, 1132, 1552, 1553, 1574, 1573
1020, 1112, 1113, 1134, 1133, 1553, 1554, 1575, 1574
1021, 1114, 1115, 1136, 1135, 1555, 1556, 1577, 1576
1022, 1115, 1116, 1137, 1136, 1556, 1557, 1578, 1577
1023, 1116, 1117, 1138, 1137, 1557, 1558, 1579, 1578
1024, 1117, 1118, 1139, 1138, 1558, 1559, 1580, 1579
1025, 1118, 1119, 1140, 1139, 1559, 1560, 1581, 1580
1026, 1119, 1120, 1141, 1140, 1560, 1561, 1582, 1581
1027, 1120, 1121, 1142, 1141, 1561, 1562, 1583, 1582
1028, 1121, 1122, 1143, 1142, 1562, 1563, 1584, 1583
1029, 1122, 1123, 1144, 1143, 1563, 1564, 1585, 1584
1030, 1123, 1124, 1145, 1144, 1564, 1565, 1586, 1585
1031, 1124, 1125, 1146, 1145, 1565, 1566, 1587, 1586
1032, 1125, 1126, 1147, 1146, 1566, 1567, 1588, 1587
1033, 1126, 1127, 1148, 1147, 1567, 1568, 1589, 1588
1034, 1127, 1128, 1149, 1148, 1568, 1569, 1590, 1589
1035, 1128, 1129, 1150, 1149, 1569, 1570, 1591, 1590
1036, 1129, 1130, 1151, 1150, 1570, 1571, 1592, 1591
1037, 1130, 1131, 1152, 1151, 1571, 1572, 1593, 1592
1038, 1131, 1132, 1153, 1152, 1572, 1573, 1594, 1593
1039, 1132, 1133, 1154, 1153, 1573, 1574, 1595, 1594
1040, 1133, 1134, 1155, 1154, 1574, 1575, 1596, 1595
1041, 1135, 1136, 1157, 1156, 1576, 1577, 1598, 1597
1042, 1136, 1137, 1158, 1157, 1577, 1578, 1599, 1598
1043, 1137, 1138, 1159, 1158, 1578, 1579, 1600, 1599
1044, 1138, 1139, 1160, 1159, 1579, 1580, 1601, 1600
1045, 1139, 1140, 1161, 1160, 1580, 1581, 1602, 1601
1046, 1140, 1141, 1162, 1161, 1581, 1582, 1603, 1602
1047, 1141, 1142, 1163, 1162, 1582, 1583, 1604, 1603
1048, 1142, 1143, 1164, 1163, 1583, 1584, 1605, 1604
1049, 1143, 1144, 1165, 1164, 1584, 1585, 1606, 1605
1050, 1144, 1145, 1166, 1165, 1585, 1586, 1607, 1606
1051, 1145, 1146, 1167, 1166, 1586, 1587, 1608, 1607
1052, 1146, 1147, 1168, 1167, 1587, 1588, 1609, 1608
1053, 1147, 1148, 1169, 1168, 1588, 1589, 1610, 1609
1054, 1148, 1149, 1170, 1169, 1589, 1590, 1611, 1610
1055, 1149, 1150, 1171, 1170, 1590, 1591, 1612, 1611
1056, 1150, 1151, 1172, 1171, 1591, 1592, 1613, 1612
1057, 1151, 1152, 1173, 1172, 1592, 1593, 1614, 1613
1058, 1152, 1153, 1174, 1173, 1593, 1594, 1615, 1614
1059, 1153, 1154, 1175, 1174, 1594, 1595, 1616, 1615
1060, 1154, 1155, 1176, 1175, 1595, 1596, 1617, 1616
1061, 1156, 1157, 1178, 1177, 1597, 1598, 1619, 1618
1062, 1157, 1158, 1179, 1178, 1598, 1599, 1620, 1619
1063, 1158, 1159, 1180, 1179, 1599, 1600, 1621, 1620
1064, 1159, 1160, 1181, 1180, 1600, 1601, 1622, 1621
1065, 1160, 1161, 1182, 1181, 1601, 1602, 1623, 1622
1066, 1161, 1162, 1183, 1182, 1602, 1603, 1624, 1623
1067, 1162, 1163, 1184, 1183, 1603, 1604, 1625, 1624
1068, 1163, 1164, 1185, 1184, 1604, 1605, 1626, 1625
1069, 1164, 1165, 1186, 1185, 1605, 1606, 1627, 1626
1070, 1165, 1166, 1187, 1186, 1606, 1607, 1628, 1627
1071, 1166, 1167, 1188, 1187, 1607, 1608, 1629, 1628
1072, 1167, 1168, 1189, 1188, 1608, 1609, 1630, 1629
1073, 1168, 1169, 1190, 1189, 1609, 1610, 1631, 1630
1074, 1169, 1170, 1191, 1190, 1610, 1611, 1632, 1631
1075, 1170, 1171, 1192, 1191, 1611, 1612, 1633, 1632
1076, 1171, 1172, 1193, 1192, 1612, 1613, 1634, 1633
1077, 1172, 1173, 1194, 1193, 1613, 1614, 1635, 1634
1078, 1173, 1174, 1195, 1194, 1614, 1615, 1636, 1635
1079, 1174, 1175, 1196, 1195, 1615, 1616, 1637, 1636
1080, 1175, 1176, 1197, 1196, 1616, 1617, 1638, 1637
1081, 1177, 1178, 1199, 1198, 1618, 1619, 1640, 1639
1082, 1178, 1179, 1200, 1199, 1619, 1620, 1641, 1640
1083, 1179, 1180, 1201, 1200, 1620, 1621, 1642, 1641
1084, 1180, 1181, 1202, 1201, 1621, 1622, 1643, 1642
1085, 1181, 1182, 1203, 1202, 1622, 1623, 1644, 1643
1086, 1182, 1183, 1204, 1203, 1623, 1624, 1645, 1644
1087, 1183, 1184, 1205, 1204, 1624, 1625, 1646, 1645
1088, 1184, 1185, 1206, 1205, 1625, 1626, 1647, 1646
1089, 1185, 1186, 1207, 1206, 1626, 1627, 1648, 1647
1090, 1186, 1187, 1208, 1207, 1627, 1628, 1649, 1648
1091, 1187, 1188, 1209, 1208, 1628, 1629, 1650, 1649
1092, 1188, 1189, 1210, 1209, 1629, 1630, 1651, 1650
1093, 1189, 1190, 1211, 1210, 1630, 1631, 1652, 1651
1094, 1190, 1191, 1212, 1211, 1631, 1632, 1653, 1652
1095, 1191, 1192, 1213, 1212, 1632, 1633, 1654, 1653
1096, 1192, 1193, 1214, 1213, 1633, 1634, 1655, 1654
1097, 1193, 1194, 1215, 1214, 1634, 1635, 1656, 1655
1098, 1194, 1195, 1216, 1215, 1635, 1636, 1657, 1656
1099, 1195, 1196, 1217, 1216, 1636, 1637, 1658, 1657
1100, 1196, 1197, 1218, 1217, 1637, 1638, 1659, 1658
1101, 1198, 1199, 1220, 1219, 1639, 1640, 1661, 1660
1102, 1199, 1200, 1221, 1220, 1640, 1641, 1662, 1661
1103, 1200, 1201, 1222, 1221, 1641, 1642, 1663, 1662
1104, 1201, 1202, 1223, 1222, 1642, 1643, 1664, 1663
1105, 1202, 1203, 1224, 1223, 1643, 1644, 1665, 1664
1106, 1203, 1204, 1225, 1224, 1644, 1645, 1666, 1665
1107, 1204, 1205, 1226, 1225, 1645, 1646, 1667, 1666
1108, 1205, 1206, 1227, 1226, 1646, 1647, 1668, 1667
1109, 1206, 1207, 1228, 1227, 1647, 1648, 1669, 1668
1110, 1207, 1208, 1229, 1228, 1648, 1649, 1670, 1669
1111, 1208, 1209, 1230, 1229, 1649, 1650, 1671, 1670
1112, 1209, 1210, 1231, 1230, 1650, 1651, 1672, 1671
1113, 1210, 1211, 1232, 1231, 1651, 1652, 1673, 1672
1114, 1211, 1212, 1233, 1232, 1652, 1653, 1674, 1673
1115, 1212, 1213, 1234, 1233, 1653, 1654, 1675, 1674
1116, 1213, 1214, 1235, 1234, 1654, 1655, 1676, 1675
1117, 1214, 1215, 1236, 1235, 1655, 1656, 1677, 1676
1118, 1215, 1216, 1237, 1236, 1656, 1657, 1678, 1677
1119, 1216, 1217, 1238, 1237, 1657, 1658, 1679, 1678
1120, 1217, 1218, 1239, 1238, 1658, 1659, 1680, 1679
1121, 1219, 1220, 1241, 1240, 1660, 1661, 1682, 1681
1122, 1220, 1221, 1242, 1241, 1661, 1662, 1683, 1682
1123, 1221, 1222, 1243, 1242, 1662, 1663, 1684, 1683
1124, 1222, 1223, 1244, 1243, 1663, 1664, 1685, 1684
1125, 1223, 1224, 1245, 1244, 1664, 1665, 1686, 1685
1126, 1224, 1225, 1246, 1245, 1665, 1666, 1687, 1686
1127, 1225, 1226, 1247, 1246, 1666, 1667, 1688, 1687
1128, 1226, 1227, 1248, 1247, 1667, 1668, 1689, 1688
1129, 1227, 1228, 1249, 1248, 1668, 1669, 1690, 1689
1130, 1228, 1229, 1250, 1249, 1669, 1670, 1691, 1690
1131, 1229, 1230, 1251, 1250, 1670, 1671, 1692, 1691
1132, 1230, 1231, 1252, 1251, 1671, 1672, 1693, 1692
1133, 1231, 1232, 1253, 1252, 1672, 1673, 1694, 1693
1134, 1232, 1233, 1254, 1253, 1673, 1674, 1695, 1694
1135, 1233, 1234, 1255, 1254, 1674, 1675, 1696, 1695
1136, 1234, 1235, 1256, 1255, 1675, 1676, 1697, 1696
1137, 1235, 1236, 1257, 1256, 1676, 1677, 1698, 1697
1138, 1236, 1237, 1258, 1257, 1677, 1678, 1699, 1698
1139, 1237, 1238, 1259, 1258, 1678, 1679, 1700, 1699
1140, 1238, 1239, 1260, 1259, 1679, 1680, 1701, 1700
1141, 1240, 1241, 1262, 1261, 1681, 1682, 1703, 1702
1142, 1241, 1242, 1263, 1262, 1682, 1683, 1704, 1703
1143, 1242, 1243, 1264, 1263, 1683, 1684, 1705, 1704
1144, 1243, 1244, 1265, 1264, 1684, 1685, 1706, 1705
1145, 1244, 1245, 1266, 1265, 1685, 1686, 1707, 1706
1146, 1245, 1246, 1267, 1266, 1686, 1687, 1708, 1707
1147, 1246, 1247, 1268, 1267, 1687, 1688, 1709, 1708
1148, 1247, 1248, 1269, 1268, 1688, 1689, 1710, 1709
1149, 1248, 1249, 1270, 1269, 1689, 1690, 1711, 1710
1150, 1249, 1250, 1271, 1270, 1690, 1691, 1712, 1711
1151, 1250, 1251, 1272, 1271, 1691, 1692, 1713, 1712
1152, 1251, 1252, 1273, 1272, 1692, 1693, 1714, 1713
1153, 1252, 1253, 1274, 1273, 1693, 1694, 1715, 1714
1154, 1253, 1254, 1275, 1274, 1694, 1695, 1716, 1715
1155, 1254, 1255, 1276, 1275, 1695, 1696, 1717, 1716
1156, 1255, 1256, 1277, 1276, 1696, 1697, 1718, 1717
1157, 1256, 1257, 1278, 1277, 1697, 1698, 1719, 1718
1158, 1257, 1258, 1279, 1278, 1698, 1699, 1720, 1719
1159, 1258, 1259, 1280, 1279, 1699, 1700, 1721, 1720
1160, 1259, 1260, 1281, 1280, 1700, 1701, 1722, 1721
1161, 1261, 1262, 1283, 1282, 1702, 1703, 1724, 1723
1162, 1262, 1263, 1284, 1283, 1703, 1704, 1725, 1724
1163, 1263, 1264, 1285, 1284, 1704, 1705, 1726, 1725
1164, 1264, 1265, 1286, 1285, 1705, 1706, 1727, 1726
1165, 1265, 1266, 1287, 1286, 1706, 1707, 1728, 1727
1166, 1266, 1267, 1288, 1287, 1707, 1708, 1729, 1728
1167, 1267, 1268, 1289, 1288, 1708, 1709, 1730, 1729
1168, 1268, 1269, 1290, 1289, 1709, 1710, 1731, 1730
1169, 1269, 1270, 1291, 1290, 1710, 1711, 1732, 1731
1170, 1270, 1271, 1292, 1291, 1711, 1712, 1733, 1732
1171, 1271, 1272, 1293, 1292, 1712, 1713, 1734, 1733
1172, 1272, 1273, 1294, 1293, 1713, 1714, 1735, 1734
1173, 1273, 1274, 1295, 1294, 1714, 1715, 1736, 1735
1174, 1274, 1275, 1296, 1295, 1715, 1716, 1737, 1736
1175, 1275, 1276, 1297, 1296, 1716, 1717, 1738, 1737
1176, 1276, 1277, 1298, 1297, 1717, 1718, 1739, 1738
1177, 1277, 1278, 1299, 1298, 1718, 1719, 1740, 1739
1178, 1278, 1279, 1300, 1299, 1719, 1720, 1741, 1740
1179, 1279, 1280, 1301, 1300, 1720, 1721, 1742, 1741
1180, 1280, 1281, 1302, 1301, 1721, 1722, 1743, 1742
1181, 1282, 1283, 1304, 1303, 1723, 1724, 1745, 1744
1182, 1283, 1284, 1305, 1304, 1724, 1725, 1746, 1745
1183, 1284, 1285, 1306, 1305, 1725, 1726, 1747, 1746
1184, 1285, 1286, 1307, 1306, 1726, 1727, 1748, 1747
1185, 1286, 1287, 1308, 1307, 1727, 1728, 1749, 1748
1186, 1287, 1288, 1309, 1308, 1728, 1729, 1750, 1749
1187, 1288, 1289, 1310, 1309, 1729, 1730, 1751, 1750
1188, 1289, 1290, 1311, 1310, 1730, 1731, 1752, 1751
1189, 1290, 1291, 1312, 1311, 1731, 1732, 1753, 1752
1190, 1291, 1292, 1313, 1312, 1732, 1733, 1754, 1753
1191, 1292, 1293, 1314, 1313, 1733, 1734, 1755, 1754
1192, 1293, 1294, 1315, 1314, 1734, 1735, 1756, 1755
1193, 1294, 1295, 1316, 1315, 1735, 1736, 1757, 1756
1194, 1295, 1296, 1317, 1316, 1736, 1737, 1758, 1757
1195, 1296, 1297, 1318, 1317, 1737, 1738, 1759, 1758
1196, 1297, 1298, 1319, 1318, 1738, 1739, 1760, 1759
1197, 1298, 1299, 1320, 1319, 1739, 1740, 1761, 1760
1198, 1299, 1300, 1321, 1320, 1740, 1741, 1762, 1761
1199, 1300, 1301, 1322, 1321, 1741, 1742, 1763, 1762
1200, 1301, 1302, 1323, 1322, 1742, 1743, 1764, 1763
1201, 1324, 1325, 1346, 1345, 1765, 1766, 1787, 1786
1202, 1325, 1326, 1347, 1346, 1766, 1767, 1788, 1787
1203, 1326, 1327, 1348, 1347, 1767, 1768, 1789, 1788
1204, 1327, 1328, 1349, 1348, 1768, 1769, 1790, 1789
1205, 1328, 1329, 1350, 1349, 1769, 1770, 1791, 1790
1206, 1329, 1330, 1351, 1350, 1770, 1771, 1792, 1791
1207, 1330, 1331, 1352, 1351, 1771, 1772, 1793, 1792
1208, 1331, 1332, 1353, 1352, 1772, 1773, 1794, 1793
1209, 1332, 1333, 1354, 1353, 1773, 1774, 1795, 1794
1210, 1333, 1334, 1355, 1354, 1774, 1775, 1796, 1795
1211, 1334, 1335, 1356, 1355, 1775, 1776, 1797, 1796
1212, 1335, 1336, 1357, 1356, 1776, 1777, 1798, 1797
1213, 1336, 1337, 1358, 1357, 1777, 1778, 1799, 1798
1214, 1337, 1338, 1359, 1358, 1778, 1779, 1800, 1799
1215, 1338, 1339, 1360, 1359, 1779, 1780, 1801, 1800
1216, 1339, 1340, 1361, 1360, 1780, 1781, 1802, 1801
1217, 1340, 1341, 1362, 1361, 1781, 1782, 1803, 1802
1218, 1341, 1342, 1363, 1362, 1782, 1783, 1804, 1803
1219, 1342, 1343, 1364, 1363, 1783, 1784, 1805, 1804
1220, 1343, 1344, 1365, 1364, 1784, 1785, 1806, 1805
1221, 1345, 1346, 1367, 1366, 1786, 1787, 1808, 1807
1222, 1346, 1347, 1368, 1367, 1787, 1788, 1809, 1808
1223, 1347, 1348, 1369, 1368, 1788, 1789, 1810, 1809
1224, 1348, 1349, 1370, 1369, 1789, 1790, 1811, 1810
1225, 1349, 1350, 1371, 1370, 1790, 1791, 1812, 1811
1226, 1350, 1351, 1372, 1371, 1791, 1792, 1813, 1812
1227, 1351, 1352, 1373, 1372, 1792, 1793, 1814, 1813
1228, 1352, 1353, 1374, 1373, 1793, 1794, 1815, 1814
1229, 1353, 1354, 1375, 1374, 1794, 1795, 1816, 1815
1230, 1354, 1355, 1376, 1375, 1795, 1796, 1817, 1816
1231, 1355, 1356, 1377, 1376, 1796, 1797, 1818, 1817
1232, 1356, 1357, 1378, 1377, 1797, 1798, 1819, 1818
1233, 1357, 1358, 1379, 1378, 1798, 1799, 1820, 1819
1234, 1358, 1359, 1380, 1379, 1799, 1800, 1821, 1820
1235, 1359, 1360, 1381, 1380, 1800, 1801, 1822, 1821
1236, 1360, 1361, 1382, 1381, 1801, 1802, 1823, 1822
1237, 1361, 1362, 1383, 1382, 1802, 1803, 1824, 1823
1238, 1362, 1363, 1384, 1383, 1803, 1804, 1825, 1824
1239, 1363, 1364, 1385, 1384, 1804, 1805, 1826, 1825
1240, 1364, 1365, 1386, 1385, 1805, 1806, 1827, 1826
1241, 1366, 1367, 1388, 1387, 1807, 1808, 1829, 1828
1242, 1367, 1368, 1389, 1388, 1808, 1809, 1830, 1829
1243, 1368, 1369, 1390, 1389, 1809, 1810, 1831, 1830
1244, 1369, 1370, 1391, 1390, 1810, 1811, 1832, 1831
1245, 1370, 1371, 1392, 1391, 1811, 1812, 1833, 1832
1246, 1371, 1372, 1393, 1392, 1812, 1813, 1834, 1833
1247, 1372, 1373, 1394, 1393, 1813, 1814, 1835, 1834
1248, 1373, 1374, 1395, 1394, 1814, 1815, 1836, 1835
1249, 1374, 1375, 1396, 1395, 1815, 1816, 1837, 1836
1250, 1375, 1376, 1397, 1396, 1816, 1817, 1838, 1837
1251, 1376, 1377, 1398, 1397, 1817, 1818, 1839, 1838
1252, 1377, 1378, 1399, 1398, 1818, 1819, 1840, 1839
1253, 1378, 1379, 1400, 1399, 1819, 1820, 1841, 1840
1254, 1379, 1380, 1401, 1400, 1820, 1821, 1842, 1841
1255, 1380, 1381, 1402, 1401, 1821, 1822, 1843, 1842
1256, 1381, 1382, 1403, 1402, 1822, 1823, 1844, 1843
1257, 1382, 1383, 1404, 1403, 1823, 1824, 1845, 1844
1258, 1383, 1384, 1405, 1404, 1824, 1825, 1846, 1845
1259, 1384, 1385, 1406, 1405, 1825, 1826, 1847, 1846
1260, 1385, 1386, 1407, 1406, 1826, 1827, 1848, 1847
1261, 1387, 1388, 1409, 1408, 1828, 1829, 1850, 1849
1262, 1388, 1389, 1410, 1409, 1829, 1830, 1851, 1850
1263, 1389, 1390, 1411, 1410, 1830, 1831, 1852, 1851
1264, 1390, 1391, 1412, 1411, 1831, 1832, 1853, 1852
1265, 1391, 1392, 1413, 1412, 1832, 1833, 1854, 1853
1266, 1392, 1393, 1414, 1413, 1833, 1834, 1855, 1854
1267, 1393, 1394, 1415, 1414, 1834, 1835, 1856, 1855
1268, 1394, 1395, 1416, 1415, 1835, 1836, 1857, 1856
1269, 1395, 1396, 1417, 1416, 1836, 1837, 1858, 1857
1270, 1396, 1397, 1418, 1417, 1837, 1838, 1859, 1858
1271, 1397, 1398, 1419, 1418, 1838, 1839, 1860, 1859
1272, 1398, 1399, 1420, 1419, 1839, 1840, 1861, 1860
1273, 1399, 1400, 1421, 1420, 1840, 1841, 1862, 1861
1274, 1400, 1401, 1422, 1421, 1841, 1842, 1863, 1862
1275, 1401, 1402, 1423, 1422, 1842, 1843, 1864, 1863
1276, 1402, 1403, 1424, 1423, 1843, 1844, 1865, 1864
1277, 1403, 1404, 1425, 1424, 1844, 1845, 1866, 1865
1278, 1404, 1405, 1426, 1425, 1845, 1846, 1867, 1866
1279, 1405, 1406, 1427, 1426, 1846, 1847, 1868, 1867
1280, 1406, 1407, 1428, 1427, 1847, 1848, 1869, 1868
1281, 1408, 1409, 1430, 1429, 1849, 1850, 1871, 1870
1282, 1409, 1410, 1431, 1430, 1850, 1851, 1872, 1871
1283, 1410, 1411, 1432, 1431, 1851, 1852, 1873, 1872
1284, 1411, 1412, 1433, 1432, 1852, 1853, 1874, 1873
1285, 1412, 1413, 1434, 1433, 1853, 1854, 1875, 1874
1286, 1413, 1414, 1435, 1434, 1854, 1855, 1876, 1875
1287, 1414, 1415, 1436, 1435, 1855, 1856, 1877, 1876
1288, 1415, 1416, 1437, 1436, 1856, 1857, 1878, 1877
1289, 1416, 1417, 1438, 1437, 1857, 1858, 1879, 1878
1290, 1417, 1418, 1439, 1438, 1858, 1859, 1880, 1879
1291, 1418, 1419, 1440, 1439, 1859, 1860, 1881, 1880
1292, 1419, 1420, 1441, 1440, 1860, 1861, 1882, 1881
1293, 1420, 1421, 1442, 1441, 1861, 1862, 1883, 1882
1294, 1421, 1422, 1443, 1442, 1862, 1863, 1884, 1883
1295, 1422, 1423, 1444, 1443, 1863, 1864, 1885, 1884
1296, 1423, 1424, 1445, 1444, 1864, 1865, 1886, 1885
1297, 1424, 1425, 1446, 1445, 1865, 1866, 1887, 1886
1298, 1425, 1426, 1447, 1446, 1866, 1867, 1888, 1887
1299, 1426, 1427, 1448, 1447, 1867, 1868, 1889, 1888
1300, 1427, 1428, 1449, 1448, 1868, 1869, 1890, 1889
1301, 1429, 1430, 1451, 1450, 1870, 1871, 1892, 1891
1302, 1430, 1431, 1452, 1451, 1871, 1872, 1893, 1892
1303, 1431, 1432, 1453, 1452, 1872, 1873, 1894, 1893
1304, 1432, 1433, 1454, 1453, 1873, 1874, 1895, 1894
1305, 1433, 1434, 1455, 1454, 1874, 1875, 1896, 1895
1306, 1434, 1435, 1456, 1455, 1875, 1876, 1897, 1896
1307, 1435, 1436, 1457, 1456, 1876, 1877, 1898, 1897
1308, 1436, 1437, 1458, 1457, 1877, 1878, 1899, 1898
1309, 1437, 1438, 1459, 1458, 1878, 1879, 1900, 1899
1310, 1438, 1439, 1460, 1459, 1879, 1880, 1901, 1900
1311, 1439, 1440, 1461, 1460, 1880, 1881, 1902, 1901
1312, 1440, 1441, 1462, 1461, 1881, 1882, 1903, 1902
1313, 1441, 1442, 1463, 1462, 1882, 1883, 1904, 1903
1314, 1442, 1443, 1464, 1463, 1883, 1884, 1905, 1904
1315, 1443, 1444, 1465, 1464, 1884, 1885, 1906, 1905
1316, 1444, 1445, 1466, 1465, 1885, 1886, 1907, 1906
1317, 1445, 1446, 1467, 1466, 1886, 1887, 1908, 1907
1318, 1446, 1447, 1468, 1467, 1887, 1888, 1909, 1908
1319, 1447, 1448, 1469, 1468, 1888, 1889, 1910, 1909
1320, 1448, 1449, 1470, 1469, 1889, 1890, 1911, 1910
1321, 1450, 1451, 1472, 1471, 1891, 1892, 1913, 1912
1322, 1451, 1452, 1473, 1472, 1892, 1893, 1914, 1913
1323, 1452, 1453, 1474, 1473, 1893, 1894, 1915, 1914
1324, 1453, 1454, 1475, 1474, 1894, 1895, 1916, 1915
1325, 1454, 1455, 1476, 1475, 1895, 1896, 1917, 1916
1326, 1455, 1456, 1477, 1476, 1896, 1897, 1918, 1917
1327, 1456, 1457, 1478, 1477, 1897, 1898, 1919, 1918
1328, 1457, 1458, 1479, 1478, 1898, 1899, 1920, 1919
1329, 1458, 1459, 1480, 1479, 1899, 1900, 1921, 1920
1330, 1459, 1460, 1481, 1480, 1900, 1901, 1922, 1921
1331, 1460, 1461, 1482, 1481, 1901, 1902, 1923, 1922
1332, 1461, 1462, 1483, 1482, 1902, 1903, 1924, 1923
1333, 1462, 1463, 1484, 1483, 1903, 1904, 1925, 1924
1334, 1463, 1464, 1485, 1484, 1904, 1905, 1926, 1925
1335, 1464, 1465, 1486, 1485, 1905, 1906, 1927, 1926
1336, 1465, 1466, 1487, 1486, 1906, 1907, 1928, 1927
1337, 1466, 1467, 1488, 1487, 1907, 1908, 1929, 1928
1338, 1467, 1468, 1489, 1488, 1908, 1909, 1930, 1929
1339, 1468, 1469, 1490, 1489, 1909, 1910, 1931, 1930
1340, 1469, 1470, 1491, 1490, 1910, 1911, 1932, 1931
1341, 1471, 1472, 1493, 1492, 1912, 1913, 1934, 1933
1342, 1472, 1473, 1494, 1493, 1913, 1914, 1935, 1934
1343, 1473, 1474, 1495, 1494, 1914, 1915, 1936, 1935
1344, 1474, 1475, 1496, 1495, 1915, 1916, 1937, 1936
1345, 1475, 1476, 1497, 1496, 1916, 1917, 1938, 1937
1346, 1476, 1477, 1498, 1497, 1917, 1918, 1939, 1938
1347, 1477, 1478, 1499, 1498, 1918, 1919, 1940, 1939
1348, 1478, 1479, 1500, 1499, 1919, 1920, 1941, 1940
1349, 1479, 1480, 1501, 1500, 1920, 1921, 1942, 1941
1350, 1480, 1481, 1502, 1501, 1921, 1922, 1943, 1942
1351, 1481, 1482, 1503, 1502, 1922, 1923, 1944, 1943
1352, 1482, 1483, 1504, 1503, 1923, 1924, 1945, 1944
1353, 1483, 1484, 1505, 1504, 1924, 1925, 1946, 1945
1354, 1484, 1485, 1506, 1505, 1925, 1926, 1947, 1946
1355, 1485, 1486, 1507, 1506, 1926, 1927, 1948, 1947
1356, 1486, 1487, 1508, 1507, 1927, 1928, 1949, 1948
1357, 1487, 1488, 1509, 1508, 1928, 1929, 1950, 1949
1358, 1488, 1489, 1510, 1509, 1929, 1930, 1951, 1950
1359, 1489, 1490, 1511, 1510, 1930, 1931, 1952, 1951
1360, 1490, 1491, 1512, 1511, 1931, 1932, 1953, 1952
1361, 1492, 1493, 1514, 1513, 1933, 1934, 1955, 1954
1362, 1493, 1494, 1515, 1514, 1934, 1935, 1956, 1955
1363, 1494, 1495, 1516, 1515, 1935, 1936, 1957, 1956
1364, 1495, 1496, 1517, 1516, 1936, 1937, 1958, 1957
1365, 1496, 1497, 1518, 1517, 1937, 1938, 1959, 1958
1366, 1497, 1498, 1519, 1518, 1938, 1939, 1960, 1959
1367, 1498, 1499, 1520, 1519, 1939, 1940, 1961, 1960
1368, 1499, 1500, 1521, 1520, 1940, 1941, 1962, 1961
1369, 1500, 1501, 1522, 1521, 1941, 1942, 1963, 1962
1370, 1501, 1502, 1523, 1522, 1942, 1943, 1964, 1963
1371, 1502, 1503, 1524, 1523, 1943, 1944, 1965, 1964
1372, 1503, 1504, 1525, 1524, 1944, 1945, 1966, 1965
1373, 1504, 1505, 1526, 1525, 1945, 1946, 1967, 1966
1374, 1505, 1506, 1527, 1526, 1946, 1947, 1968, 1967
1375, 1506, 1507, 1528, 1527, 1947, 1948, 1969, 1968
1376, 1507, 1508, 1529, 1528, 1948, 1949, 1970, 1969
1377, 1508, 1509, 1530, 1529, 1949, 1950, 1971, 1970
1378, 1509, 1510, 1531, 1530, 1950, 1951, 1972, 1971
1379, 1510, 1511, 1532, 1531, 1951, 1952, 1973, 1972
1380, 1511, 1512, 1533, 1532, 1952, 1953, 1974, 1973
1381, 1513, 1514, 1535, 1534, 1954, 1955, 1976, 1975
1382, 1514, 1515, 1536, 1535, 1955, 1956, 1977, 1976
1383, 1515, 1516, 1537, 1536, 1956, 1957, 1978, 1977
1384, 1516, 1517, 1538, 1537, 1957, 1958, 1979, 1978
1385, 1517, 1518, 1539, 1538, 1958, 1959, 1980, 1979
1386, 1518, 1519, 1540, 1539, 1959, 1960, 1981, 1980
1387, 1519, 1520, 1541, 1540, 1960, 1961, 1982, 1981
1388, 1520, 1521, 1542, 1541, 1961, 1962, 1983, 1982
1389, 1521, 1522, 1543, 1542, 1962, 1963, 1984, 1983
1390, 1522, 1523, 1544, 1543, 1963, 1964, 1985, 1984
1391, 1523, 1524, 1545, 1544, 1964, 1965, 1986, 1985
1392, 1524, 1525, 1546, 1545, 1965, 1966, 1987, 1986
1393, 1525, 1526, 1547, 1546, 1966, 1967, 1988, 1987
1394, 1526, 1527, 1548, 1547, 1967, 1968, 1989, 1988
1395, 1527, 1528, 1549, 1548, 1968, 1969, 1990, 1989
1396, 1528, 1529, 1550, 1549, 1969, 1970, 1991, 1990
1397, 1529, 1530, 1551, 1550, 1970, 1971, 1992, 1991
1398, 1530, 1531, 1552, 1551, 1971, 1972, 1993, 1992
1399, 1531, 1532, 1553, 1552, 1972, 1973, 1994, 1993
1400, 1532, 1533, 1554, 1553, 1973, 1974, 1995, 1994
1401, 1534, 1535, 1556, 1555, 1975, 1976, 1997, 1996
1402, 1535, 1536, 1557, 1556, 1976, 1977, 1998, 1997
1403, 1536, 1537, 1558, 1557, 1977, 1978, 1999, 1998
1404, 1537, 1538, 1559, 1558, 1978, 1979, 2000, 1999
1405, 1538, 1539, 1560, 1559, 1979, 1980, 2001, 2000
1406, 1539, 1540, 1561, 1560, 1980, 1981, 2002, 2001
1407, 1540, 1541, 1562, 1561, 1981, 1982, 2003, 2002
1408, 1541, 1542, 1563, 1562, 1982, 1983, 2004, 2003
1409, 1542, 1543, 1564, 1563, 1983, 1984, 2005, 2004
1410, 1543, 1544, 1565, 1564, 1984, 1985, 2006, 2005
1411, 1544, 1545, 1566, 1565, 1985, 1986, 2007, 2006
1412, 1545, 1546, 1567, 1566, 1986, 1987, 2008, 2007
1413, 1546, 1547, 1568, 1567, 1987, 1988, 2009, 2008
1414, 1547, 1548, 1569, 1568, 1988, 1989, 2010, 2009
1415, 1548, 1549, 1570, 1569, 1989, 1990, 2011, 2010
1416, 1549, 1550, 1571, 1570, 1990, 1991, 2012, 2011
1417, 1550, 1551, 1572, 1571, 1991, 1992, 2013, 2012
1418, 1551, 1552, 1573, 1572, 1992, 1993, 2014, 2013
1419, 1552, 1553, 1574, 1573, 1993, 1994, 2015, 2014
1420, 1553, 1554, 1575, 1574, 1994, 1995, 2016, 2015
1421, 1555, 1556, 1577, 1576, 1996, 1997, 2018, 2017
1422, 1556, 1557, 1578, 1577, 1997, 1998, 2019, 2018
1423, 1557, 1558, 1579, 1578, 1998, 1999, 2020, 2019
1424, 1558, 1559, 1580, 1579, 1999, 2000, 2021, 2020
1425, 1559, 1560, 1581, 1580, 2000, 2001, 2022, 2021
1426, 1560, 1561, 1582, 1581, 2001, 2002, 2023, 2022
1427, 1561, 1562, 1583, 1582, 2002, 2003, 2024, 2023
1428, 1562, 1563, 1584, 1583, 2003, 2004, 2025, 2024
1429, 1563, 1564, 1585, 1584, 2004, 2005, 2026, 2025
1430, 1564, 1565, 1586, 1585, 2005, 2006, 2027, 2026
1431, 1565, 1566, 1587, 1586, 2006, 2007, 2028, 2027
1432, 1566, 1567, 1588, 1587, 2007, 2008, 2029, 2028
1433, 1567, 1568, 1589, 1588, 2008, 2009, 2030, 2029
1434, 1568, 1569, 1590, 1589, 2009, 2010, 2031, 2030
1435, 1569, 1570, 1591, 1590, 2010, 2011, 2032, 2031
1436, 1570, 1571, 1592, 1591, 2011, 2012, 2033, 2032
1437, 1571, 1572, 1593, 1592, 2012, 2013, 2034, 2033
1438, 1572, 1573, 1594, 1593, 2013, 2014, 2035, 2034
1439, 1573, 1574, 1595, 1594, 2014, 2015, 2036, 2035
1440, 1574, 1575, 1596, 1595, 2015, 2016, 2037, 2036
1441, 1576, 1577, 1598, 1597, 2017, 2018, 2039, 2038
1442, 1577, 1578, 1599, 1598, 2018, 2019, 2040, 2039
1443, 1578, 1579, 1600, 1599, 2019, 2020, 2041, 2040
1444, 1579, 1580, 1601, 1600, 2020, 2021, 2042, 2041
1445, 1580, 1581, 1602, 1601, 2021, 2022, 2043, 2042
1446, 1581, 1582, 1603, 1602, 2022, 2023, 2044, 2043
1447, 1582, 1583, 1604, 1603, 2023, 2024, 2045, 2044
1448, 1583, 1584, 1605, 1604, 2024, 2025, 2046, 2045
1449, 1584, 1585, 1606, 1605, 2025, 2026, 2047, 2046
1450, 1585, 1586, 1607, 1606, 2026, 2027, 2048, 2047
1451, 1586, 1587, 1608, 1607, 2027, 2028, 2049, 2048
1452, 1587, 1588, 1609, 1608, 2028, 2029, 2050, 2049
1453, 1588, 1589, 1610, 1609, 2029, 2030, 2051, 2050
1454, 1589, 1590, 1611, 1610, 2030, 2031, 2052, 2051
1455, 1590, 1591, 1612, 1611, 2031, 2032, 2053, 2052
1456, 1591, 1592, 1613, 1612, 2032, 2033, 2054, 2053
1457, 1592, 1593, 1614, 1613, 2033, 2034, 2055, 2054
1458, 1593, 1594, 1615, 1614, 2034, 2035, 2056, 2055
1459, 1594, 1595, 1616, 1615, 2035, 2036, 2057, 2056
1460, 1595, 1596, 1617, 1616, 2036, 2037, 2058, 2057
1461, 1597, 1598, 1619, 1618, 2038, 2039, 2060, 2059
1462, 1598, 1599, 1620, 1619, 2039, 2040, 2061, 2060
1463, 1599, 1600, 1621, 1620, 2040, 2041, 2062, 2061
1464, 1600, 1601, 1622, 1621, 2041, 2042, 2063, 2062
1465, 1601, 1602, 1623, 1622, 2042, 2043, 2064, 2063
1466, 1602, 1603, 1624, 1623, 2043, 2044, 2065, 2064
1467, 1603, 1604, 1625, 1624, 2044, 2045, 2066, 2065
1468, 1604, 1605, 1626, 1625, 2045, 2046, 2067, 2066
1469, 1605, 1606, 1627, 1626, 2046, 2047, 2068, 2067
1470, 1606, 1607, 1628, 1627, 2047, 2048, 2069, 2068
1471, 1607, 1608, 1629, 1628, 2048, 2049, 2070, 2069
1472, 1608, 1609, 1630, 1629, 2049, 2050, 2071, 2070
1473, 1609, 1610, 1631, 1630, 2050, 2051, 2072, 2071
1474, 1610, 1611, 1632, 1631, 2051, 2052, 2073, 2072
1475, 1611, 1612, 1633, 1632, 2052, 2053, 2074, 2073
1476, 1612, 1613, 1634, 1633, 2053, 2054, 2075, 2074
1477, 1613, 1614, 1635, 1634, 2054, 2055, 2076, 2075
1478, 1614, 1615, 1636, 1635, 2055, 2056, 2077, 2076
1479, 1615, 1616, 1637, 1636, 2056, 2057, 2078, 2077
1480, 1616, 1617, 1638, 1637, 2057, 2058, 2079, 2078
1481, 1618, 1619, 1640, 1639, 2059, 2060, 2081, 2080
1482, 1619, 1620, 1641, 1640, 2060, 2061, 2082, 2081
1483, 1620, 1621, 1642, 1641, 2061, 2062, 2083, 2082
1484, 1621, 1622, 1643, 1642, 2062, 2063, 2084, 2083
1485, 1622, 1623, 1644, 1643, 2063, 2064, 2085, 2084
1486, 1623, 1624, 1645, 1644, 2064, 2065, 2086, 2085
1487, 1624, 1625, 1646, 1645, 2065, 2066, 2087, 2086
1488, 1625, 1626, 1647, 1646, 2066, 2067, 2088, 2087
1489, 1626, 1627, 1648, 1647, 2067, 2068, 2089, 2088
1490, 1627, 1628, 1649, 1648, 2068, 2069, 2090, 2089
1491, 1628, 1629, 1650, 1649, 2069, 2070, 2091, 2090
1492, 1629, 1630, 1651, 1650, 2070, 2071, 2092, 2091
1493, 1630, 1631, 1652, 1651, 2071, 2072, 2093, 2092
1494, 1631, 1632, 1653, 1652, 2072, 2073, 2094, 2093
1495, 1632, 1633, 1654, 1653, 2073, 2074, 2095, 2094
1496, 1633, 1634, 1655, 1654, 2074, 2075, 2096, 2095
1497, 1634, 1635, 1656, 1655, 2075, 2076, 2097, 2096
1498, 1635, 1636, 1657, 1656, 2076, 2077, 2098, 2097
1499, 1636, 1637, 1658, 1657, 2077, 2078, 2099, 2098
1500, 1637, 1638, 1659, 1658, 2078, 2079, 2100, 2099
1501, 1639, 1640, 1661, 1660, 2080, 2081, 2102, 2101
1502, 1640, 1641, 1662, 1661, 2081, 2082, 2103, 2102
1503, 1641, 1642, 1663, 1662, 2082, 2083, 2104, 2103
1504, 1642, 1643, 1664, 1663, 2083, 2084, 2105, 2104
1505, 1643, 1644, 1665, 1664, 2084, 2085, 2106, 2105
1506, 1644, 1645, 1666, 1665, 2085, 2086, 2107, 2106
1507, 1645, 1646, 1667, 1666, 2086, 2087, 2108, 2107
1508, 1646, 1647, 1668, 1667, 2087, 2088, 2109, 2108
1509, 1647, 1648, 1669, 1668, 2088, 2089, 2110, 2109
1510, 1648, 1649, 1670, 1669, 2089, 2090, 2111, 2110
1511, 1649, 1650, 1671, 1670, 2090, 2091, 2112, 2111
1512, 1650, 1651, 1672, 1671, 2091, 2092, 2113, 2112
1513, 1651, 1652, 1673, 1672, 2092, 2093, 2114, 2113
1514, 1652, 1653, 1674, 1673, 2093, 2094, 2115, 2114
1515, 1653, 1654, 1675, 1674, 2094, 2095, 2116, 2115
1516, 1654, 1655, 1676, 1675, 2095, 2096, 2117, 2116
1517, 1655, 1656, 1677, 1676, 2096, 2097, 2118, 2117
1518, 1656, 1657, 1678, 1677, 2097, 2098, 2119, 2118
1519, 1657, 1658, 1679, 1678, 2098, 2099, 2120, 2119
1520, 1658, 1659, 1680, 1679, 2099, 2100, 2121, 2120
1521, 1660, 1661, 1682, 1681, 2101, 2102, 2123, 2122
1522, 1661, 1662, 1683, 1682, 2102, 2103, 2124, 2123
1523, 1662, 1663, 1684, 1683, 2103, 2104, 2125, 2124
1524, 1663, 1664, 1685, 1684, 2104, 2105, 2126, 2125
1525, 1664, 1665, 1686, 1685, 2105, 2106, 2127, 2126
1526, 1665, 1666, 1687, 1686, 2106, 2107, 2128, 2127
1527, 1666, 1667, 1688, 1687, 2107, 2108, 2129, 2128
1528, 1667, 1668, 1689, 1688, 2108, 2109, 2130, 2129
1529, 1668, 1669, 1690, 1689, 2109, 2110, 2131, 2130
1530, 1669, 1670, 1691, 1690, 2110, 2111, 2132, 2131
1531, 1670, 1671, 1692, 1691, 2111, 2112, 2133, 2132
1532, 1671, 1672, 1693, 1692, 2112, 2113, 2134, 2133
1533, 1672, 1673, 1694, 1693, 2113, 2114, 2135, 2134
1534, 1673, 1674, 1695, 1694, 2114, 2115, 2136, 2135
1535, 1674, 1675, 1696, 1695, 2115, 2116, 2137, 2136
1536, 1675, 1676, 1697, 1696, 2116, 2117, 2138, 2137
1537, 1676, 1677, 1698, 1697, 2117, 2118, 2139, 2138
1538, 1677, 1678, 1699, 1698, 2118, 2119, 2140, 2139
1539, 1678, 1679, 1700, 1699, 2119, 2120, 2141, 2140
1540, 1679, 1680, 1701, 1700, 2120, 2121, 2142, 2141
1541, 1681, 1682, 1703, 1702, 2122, 2123, 2144, 2143
1542, 1682, 1683, 1704, 1703, 2123, 2124, 2145, 2144
1543, 1683, 1684, 1705, 1704, 2124, 2125, 2146, 2145
1544, 1684, 1685, 1706, 1705, 2125, 2126, 2147, 2146
1545, 1685, 1686, 1707, 1706, 2126, 2127, 2148, 2147
1546, 1686, 1687, 1708, 1707, 2127, 2128, 2149, 2148
1547, 1687, 1688, 1709, 1708, 2128, 2129, 2150, 2149
1548, 1688, 1689, 1710, 1709, 2129, 2130, 2151, 2150
1549, 1689, 1690, 1711, 1710, 2130, 2131, 2152, 2151
1550, 1690, 1691, 1712, 1711, 2131, 2132, 2153, 2152
1551, 1691, 1692, 1713, 1712, 2132, 2133, 2154, 2153
1552, 1692, 1693, 1714, 1713, 2133, 2134, 2155, 2154
1553, 1693, 1694, 1715, 1714, 2134, 2135, 2156, 2155
1554, 1694, 1695, 1716, 1715, 2135, 2136, 2157, 2156
1555, 1695, 1696, 1717, 1716, 2136, 2137, 2158, 2157
1556, 1696, 1697, 1718, 1717, 2137, 2138, 2159, 2158
1557, 1697, 1698, 1719, 1718, 2138, 2139, 2160, 2159
1558, 1698, 1699, 1720, 1719, 2139, 2140, 2161, 2160
1559, 1699, 1700, 1721, 1720, 2140, 2141, 2162, 2161
1560, 1700, 1701, 1722, 1721, 2141, 2142, 2163, 2162
1561, 1702, 1703, 1724, 1723, 2143, 2144, 2165, 2164
1562, 1703, 1704, 1725, 1724, 2144, 2145, 2166, 2165
1563, 1704, 1705, 1726, 1725, 2145, 2146, 2167, 2166
1564, 1705, 1706, 1727, 1726, 2146, 2147, 2168, 2167
1565, 1706, 1707, 1728, 1727, 2147, 2148, 2169, 2168
1566, 1707, 1708, 1729, 1728, 2148, 2149, 2170, 2169
1567, 1708, 1709, 1730, 1729, 2149, 2150, 2171, 2170
1568, 1709, 1710, 1731, 1730, 2150, 2151, 2172, 2171
1569, 1710, 1711, 1732, 1731, 2151, 2152, 2173, 2172
1570, 1711, 1712, 1733, 1732, 2152, 2153, 2174, 2173
1571, 1712, 1713, 1734, 1733, 2153, 2154, 2175, 2174
1572, 1713, 1714, 1735, 1734, 2154, 2155, 2176, 2175
1573, 1714, 1715, 1736, 1735, 2155, 2156, 2177, 2176
1574, 1715, 1716, 1737, 1736, 2156, 2157, 2178, 2177
1575, 1716, 1717, 1738, 1737, 2157, 2158, 2179, 2178
1576, 1717, 1718, 1739, 1738, 2158, 2159, 2180, 2179
1577, 1718, 1719, 1740, 1739, 2159, 2160, 2181, 2180
1578, 1719, 1720, 1741, 1740, 2160, 2161, 2182, 2181
1579, 1720, 1721, 1742, 1741, 2161, 2162, 2183, 2182
1580, 1721, 1722, 1743, 1742, 2162, 2163, 2184, 2183
1581, 1723, 1724, 1745, 1744, 2164, 2165, 2186, 2185
1582, 1724, 1725, 1746, 1745, 2165, 2166, 2187, 2186
1583, 1725, 1726, 1747, 1746, 2166, 2167, 2188, 2187
1584, 1726, 1727, 1748, 1747, 2167, 2168, 2189, 2188
1585, 1727, 1728, 1749, 1748, 2168, 2169, 2190, 2189
1586, 1728, 1729, 1750, 1749, 2169, 2170, 2191, 2190
1587, 1729, 1730, 1751, 1750, 2170, 2171, 2192, 2191
1588, 1730, 1731, 1752, 1751, 2171, 2172, 2193, 2192
1589, 1731, 1732, 1753, 1752, 2172, 2173, 2194, 2193
1590, 1732, 1733, 1754, 1753, 2173, 2174, 2195, 2194
1591, 1733, 1734, 1755, 1754, 2174, 2175, 2196, 2195
1592, 1734, 1735, 1756, 1755, 2175, 2176, 2197, 2196
1593, 1735, 1736, 1757, 1756, 2176, 2177, 2198, 2197
1594, 1736, 1737, 1758, 1757, 2177, 2178, 2199, 2198
1595, 1737, 1738, 1759, 1758, 2178, 2179, 2200, 2199
1596, 1738, 1739, 1760, 1759, 2179, 2180, 2201, 2200
1597, 1739, 1740, 1761, 1760, 2180, 2181, 2202, 2201
1598, 1740, 1741, 1762, 1761, 2181, 2182, 2203, 2202
1599, 1741, 1742, 1763, 1762, 2182, 2183, 2204, 2203
1600, 1742, 1743, 1764, 1763, 2183, 2184, 2205, 2204
1601, 1765, 1766, 1787, 1786, 2206, 2207, 2228, 2227
1602, 1766, 1767, 1788, 1787, 2207, 2208, 2229, 2228
1603, 1767, 1768, 1789, 1788, 2208, 2209, 2230, 2229
1604, 1768, 1769, 1790, 1789, 2209, 2210, 2231, 2230
1605, 1769, 1770, 1791, 1790, 2210, 2211, 2232, 2231
1606, 1770, 1771, 1792, 1791, 2211, 2212, 2233, 2232
1607, 1771, 1772, 1793, 1792, 2212, 2213, 2234, 2233
1608, 1772, 1773, 1794, 1793, 2213, 2214, 2235, 2234
1609, 1773, 1774, 1795, 1794, 2214, 2215, 2236, 2235
1610, 1774, 1775, 1796, 1795, 2215, 2216, 2237, 2236
1611, 1775, 1776, 1797, 1796, 2216, 2217, 2238, 2237
1612, 1776, 1777, 1798, 1797, 2217, 2218, 2239, 2238
1613, 1777, 1778, 1799, 1798, 2218, 2219, 2240, 2239
1614, 1778, 1779, 1800, 1799, 2219, 2220, 2241, 2240
1615, 1779, 1780, 1801, 1800, 2220, 2221, 2242, 2241
1616, 1780, 1781, 1802, 1801, 2221, 2222, 2243, 2242
1617, 1781, 1782, 1803, 1802, 2222, 2223, 2244, 2243
1618, 1782, 1783, 1804, 1803, 2223, 2224, 2245, 2244
1619, 1783, 1784, 1805, 1804, 2224, 2225, 2246, 2245
1620, 1784, 1785, 1806, 1805, 2225, 2226, 2247, 2246
1621, 1786, 1787, 1808, 1807, 2227, 2228, 2249, 2248
1622, 1787, 1788, 1809, 1808, 2228, 2229, 2250, 2249
1623, 1788, 1789, 1810, 1809, 2229, 2230, 2251, 2250
1624, 1789, 1790, 1811, 1810, 2230, 2231, 2252, 2251
1625, 1790, 1791, 1812, 1811, 2231, 2232, 2253, 2252
1626, 1791, 1792, 1813, 1812, 2232, 2233, 2254, 2253
1627, 1792, 1793, 1814, 1813, 2233, 2234, 2255, 2254
1628, 1793, 1794, 1815, 1814, 2234, 2235, 2256, 2255
1629, 1794, 1795, 1816, 1815, 2235, 2236, 2257, 2256
1630, 1795, 1796, 1817, 1816, 2236, 2237, 2258, 2257
1631, 1796, 1797, 1818, 1817, 2237, 2238, 2259, 2258
1632, 1797, 1798, 1819, 1818, 2238, 2239, 2260, 2259
1633, 1798, 1799, 1820, 1819, 2239, 2240, 2261, 2260
1634, 1799, 1800, 1821, 1820, 2240, 2241, 2262, 2261
1635, 1800, 1801, 1822, 1821, 2241, 2242, 2263, 2262
1636, 1801, 1802, 1823, 1822, 2242, 2243, 2264, 2263
1637, 1802, 1803, 1824, 1823, 2243, 2244, 2265, 2264
1638, 1803, 1804, 1825, 1824, 2244, 2245, 2266, 2265
1639, 1804, 1805, 1826, 1825, 2245, 2246, 2267, 2266
1640, 1805, 1806, 1827, 1826, 2246, 2247, 2268, 2267
1641, 1807, 1808, 1829, 1828, 2248, 2249, 2270, 2269
1642, 1808, 1809, 1830, 1829, 2249, 2250, 2271, 2270
1643, 1809, 1810, 1831, 1830, 2250, 2251, 2272, 2271
1644, 1810, 1811, 1832, 1831, 2251, 2252, 2273, 2272
1645, 1811, 1812, 1833, 1832, 2252, 2253, 2274, 2273
1646, 1812, 1813, 1834, 1833, 2253, 2254, 2275, 2274
1647, 1813, 1814, 1835, 1834, 2254, 2255, 2276, 2275
1648, 1814, 1815, 1836, 1835, 2255, 2256, 2277, 2276
1649, 1815, 1816, 1837, 1836, 2256, 2257, 2278, 2277
1650, 1816, 1817, 1838, 1837, 2257, 2258, 2279, 2278
1651, 1817, 1818, 1839, 1838, 2258, 2259, 2280, 2279
1652, 1818, 1819, 1840, 1839, 2259, 2260, 2281, 2280
1653, 1819, 1820, 1841, 1840, 2260, 2261, 2282, 2281
1654, 1820, 1821, 1842, 1841, 2261, 2262, 2283, 2282
1655, 1821, 1822, 1843, 1842, 2262, 2263, 2284, 2283
1656, 1822, 1823, 1844, 1843, 2263, 2264, 2285, 2284
1657, 1823, 1824, 1845, 1844, 2264, 2265, 2286, 2285
1658, 1824, 1825, 1846, 1845, 2265, 2266, 2287, 2286
1659, 1825, 1826, 1847, 1846, 2266, 2267, 2288, 2287
1660, 1826, 1827, 1848, 1847, 2267, 2268, 2289, 2288
1661, 1828, 1829, 1850, 1849, 2269, 2270, 2291, 2290
1662, 1829, 1830, 1851, 1850, 2270, 2271, 2292, 2291
1663, 1830, 1831, 1852, 1851, 2271, 2272, 2293, 2292
1664, 1831, 1832, 1853, 1852, 2272, 2273, 2294, 2293
1665, 1832, 1833, 1854, 1853, 2273, 2274, 2295, 2294
1666, 1833, 1834, 1855, 1854, 2274, 2275, 2296, 2295
1667, 1834, 1835, 1856, 1855, 2275, 2276, 2297, 2296
1668, 1835, 1836, 1857, 1856, 2276, 2277, 2298, 2297
1669, 1836, 1837, 1858, 1857, 2277, 2278, 2299, 2298
1670, 1837, 1838, 1859, 1858, 2278, 2279, 2300, 2299
1671, 1838, 1839, 1860, 1859, 2279, 2280, 2301, 2300
1672, 1839, 1840, 1861, 1860, 2280, 2281, 2302, 2301
1673, 1840, 1841, 1862, 1861, 2281, 2282, 2303, 2302
1674, 1841, 1842, 1863, 1862, 2282, 2283, 2304, 2303
1675, 1842, 1843, 1864, 1863, 2283, 2284, 2305, 2304
1676, 1843, 1844, 1865, 1864, 2284, 2285, 2306, 2305
1677, 1844, 1845, 1866, 1865, 2285, 2286, 2307, 2306
1678, 1845, 1846, 1867, 1866, 2286, 2287, 2308, 2307
1679, 1846, 1847, 1868, 1867, 2287, 2288, 2309, 2308
1680, 1847, 1848, 1869, 1868, 2288, 2289, 2310, 2309
1681, 1849, 1850, 1871, 1870, 2290, 2291, 2312, 2311
1682, 1850, 1851, 1872, 1871, 2291, 2292, 2313, 2312
1683, 1851, 1852, 1873, 1872, 2292, 2293, 2314, 2313
1684, 1852, 1853, 1874, 1873, 2293, 2294, 2315, 2314
1685, 1853, 1854, 1875, 1874, 2294, 2295, 2316, 2315
1686, 1854, 1855, 1876, 1875, 2295, 2296, 2317, 2316
1687, 1855, 1856, 1877, 1876, 2296, 2297, 2318, 2317
1688, 1856, 1857, 1878, 1877, 2297, 2298, 2319, 2318
1689, 1857, 1858, 1879, 1878, 2298, 2299, 2320, 2319
1690, 1858, 1859, 1880, 1879, 2299, 2300, 2321, 2320
1691, 1859, 1860, 1881, 1880, 2300, 2301, 2322, 2321
1692, 1860, 1861, 1882, 1881, 2301, 2302, 2323, 2322
1693, 1861, 1862, 1883, 1882, 2302, 2303, 2324, 2323
1694, 1862, 1863, 1884, 1883, 2303, 2304, 2325, 2324
1695, 1863, 1864, 1885, 1884, 2304, 2305, 2326, 2325
1696, 1864, 1865, 1886, 1885, 2305, 2306, 2327, 2326
1697, 1865, 1866, 1887, 1886, 2306, 2307, 2328, 2327
1698, 1866, 1867, 1888, 1887, 2307, 2308, 2329, 2328
1699, 1867, 1868, 1889, 1888, 2308, 2309, 2330, 2329
1700, 1868, 1869, 1890, 1889, 2309, 2310, 2331, 2330
1701, 1870, 1871, 1892, 1891, 2311, 2312, 2333, 2332
1702, 1871, 1872, 1893, 1892, 2312, 2313, 2334, 2333
1703, 1872, 1873, 1894, 1893, 2313, 2314, 2335, 2334
1704, 1873, 1874, 1895, 1894, 2314, 2315, 2336, 2335
1705, 1874, 1875, 1896, 1895, 2315, 2316, 2337, 2336
1706, 1875, 1876, 1897, 1896, 2316, 2317, 2338, 2337
1707, 1876, 1877, 1898, 1897, 2317, 2318, 2339, 2338
1708, 1877, 1878, 1899, 1898, 2318, 2319, 2340, 2339
1709, 1878, 1879, 1900, 1899, 2319, 2320, 2341, 2340
1710, 1879, 1880, 1901, 1900, 2320, 2321, 2342, 2341
1711, 1880, 1881, 1902, 1901, 2321, 2322, 2343, 2342
1712, 1881, 1882, 1903, 1902, 2322, 2323, 2344, 2343
1713, 1882, 1883, 1904, 1903, 2323, 2324, 2345, 2344
1714, 1883, 1884, 1905, 1904, 2324, 2325, 2346, 2345
1715, 1884, 1885, 1906, 1905, 2325, 2326, 2347, 2346
1716, 1885, 1886, 1907, 1906, 2326, 2327, 2348, 2347
1717, 1886, 1887, 1908, 1907, 2327, 2328, 2349, 2348
1718, 1887, 1888, 1909, 1908, 2328, 2329, 2350, 2349
1719, 1888, 1889, 1910, 1909, 2329, 2330, 2351, 2350
1720, 1889, 1890, 1911, 1910, 2330, 2331, 2352, 2351
1721, 1891, 1892, 1913, 1912, 2332, 2333, 2354, 2353
1722, 1892, 1893, 1914, 1913, 2333, 2334, 2355, 2354
1723, 1893, 1894, 1915, 1914, 2334, 2335, 2356, 2355
1724, 1894, 1895, 1916, 1915, 2335, 2336, 2357, 2356
1725, 1895, 1896, 1917, 1916, 2336, 2337, 2358, 2357
1726, 1896, 1897, 1918, 1917, 2337, 2338, 2359, 2358
1727, 1897, 1898, 1919, 1918, 2338, 2339, 2360, 2359
1728, 1898, 1899, 1920, 1919, 2339, 2340, 2361, 2360
1729, 1899, 1900, 1921, 1920, 2340, 2341, 2362, 2361
1730, 1900, 1901, 1922, 1921, 2341, 2342, 2363, 2362
1731, 1901, 1902, 1923, 1922, 2342, 2343, 2364, 2363
1732, 1902, 1903, 1924, 1923, 2343, 2344, 2365, 2364
1733, 1903, 1904, 1925, 1924, 2344, 2345, 2366, 2365
1734, 1904, 1905, 1926, 1925, 2345, 2346, 2367, 2366
1735, 1905, 1906, 1927, 1926, 2346, 2347, 2368, 2367
1736, 1906, 1907, 1928, 1927, 2347, 2348, 2369, 2368
1737, 1907, 1908, 1929, 1928, 2348, 2349, 2370, 2369
1738, 1908, 1909, 1930, 1929, 2349, 2350, 2371, 2370
1739, 1909, 1910, 1931, 1930, 2350, 2351, 2372, 2371
1740, 1910, 1911, 1932, 1931, 2351, 2352, 2373, 2372
1741, 1912, 1913, 1934, 1933, 2353, 2354, 2375, 2374
1742, 1913, 1914, 1935, 1934, 2354, 2355, 2376, 2375
1743, 1914, 1915, 1936, 1935, 2355, 2356, 2377, 2376
1744, 1915, 1916, 1937, 1936, 2356, 2357, 2378, 2377
1745, 1916, 1917, 1938, 1937, 2357, 2358, 2379, 2378
1746, 1917, 1918, 1939, 1938, 2358, 2359, 2380, 2379
1747, 1918, 1919, 1940, 1939, 2359, 2360, 2381, 2380
1748, 1919, 1920, 1941, 1940, 2360, 2361, 2382, 2381
1749, 1920, 1921, 1942, 1941, 2361, 2362, 2383, 2382
1750, 1921, 1922, 1943, 1942, 2362, 2363, 2384, 2383
1751, 1922, 1923, 1944, 1943, 2363, 2364, 2385, 2384
1752, 1923, 1924, 1945, 1944, 2364, 2365, 2386, 2385
1753, 1924, 1925, 1946, 1945, 2365, 2366, 2387, 2386
1754, 1925, 1926, 1947, 1946, 2366, 2367, 2388, 2387
1755, 1926, 1927, 1948, 1947, 2367, 2368, 2389, 2388
1756, 1927, 1928, 1949, 1948, 2368, 2369, 2390, 2389
1757, 1928, 1929, 1950, 1949, 2369, 2370, 2391, 2390
1758, 1929, 1930, 1951, 1950, 2370, 2371, 2392, 2391
1759, 1930, 1931, 1952, 1951, 2371, 2372, 2393, 2392
1760, 1931, 1932, 1953, 1952, 2372, 2373, 2394, 2393
1761, 1933, 1934, 1955, 1954, 2374, 2375, 2396, 2395
1762, 1934, 1935, 1956, 1955, 2375, 2376, 2397, 2396
1763, 1935, 1936, 1957, 1956, 2376, 2377, 2398, 2397
1764, 1936, 1937, 1958, 1957, 2377, 2378, 2399, 2398
1765, 1937, 1938, 1959, 1958, 2378, 2379, 2400, 2399
1766, 1938, 1939, 1960, 1959, 2379, 2380, 2401, 2400
1767, 1939, 1940, 1961, 1960, 2380, 2381, 2402, 2401
1768, 1940, 1941, 1962, 1961, 2381, 2382, 2403, 2402
1769, 1941, 1942, 1963, 1962, 2382, 2383, 2404, 2403
1770, 1942, 1943, 1964, 1963, 2383, 2384, 2405, 2404
1771, 1943, 1944, 1965, 1964, 2384, 2385, 2406, 2405
1772, 1944, 1945, 1966, 1965, 2385, 2386, 2407, 2406
1773, 1945, 1946, 1967, 1966, 2386, 2387, 2408, 2407
1774, 1946, 1947, 1968, 1967, 2387, 2388, 2409, 2408
1775, 1947, 1948, 1969, 1968, 2388, 2389, 2410, 2409
1776, 1948, 1949, 1970, 1969, 2389, 2390, 2411, 2410
1777, 1949, 1950, 1971, 1970, 2390, 2391, 2412, 2411
1778, 1950, 1951, 1972, 1971, 2391, 2392, 2413, 2412
1779, 1951, 1952, 1973, 1972, 2392, 2393, 2414, 2413
1780, 1952, 1953, 1974, 1973, 2393, 2394, 2415, 2414
1781, 1954, 1955, 1976, 1975, 2395, 2396, 2417, 2416
1782, 1955, 1956, 1977, 1976, 2396, 2397, 2418, 2417
1783, 1956, 1957, 1978, 1977, 2397, 2398, 2419, 2418
1784, 1957, 1958, 1979, 1978, 2398, 2399, 2420, 2419
1785, 1958, 1959, 1980, 1979, 2399, 2400, 2421, 2420
1786, 1959, 1960, 1981, 1980, 2400, 2401, 2422, 2421
1787, 1960, 1961, 1982, 1981, 2401, 2402, 2423, 2422
1788, 1961, 1962, 1983, 1982, 2402, 2403, 2424, 2423
1789, 1962, 1963, 1984, 1983, 2403, 2404, 2425, 2424
1790, 1963, 1964, 1985, 1984, 2404, 2405, 2426, 2425
1791, 1964, 1965, 1986, 1985, 2405, 2406, 2427, 2426
1792, 1965, 1966, 1987, 1986, 2406, 2407, 2428, 2427
1793, 1966, 1967, 1988, 1987, 2407, 2408, 2429, 2428
1794, 1967, 1968, 1989, 1988, 2408, 2409, 2430, 2429
1795, 1968, 1969, 1990, 1989, 2409, 2410, 2431, 2430
1796, 1969, 1970, 1991, 1990, 2410, 2411, 2432, 2431
1797, 1970, 1971, 1992, 1991, 2411, 2412, 2433, 2432
1798, 1971, 1972, 1993, 1992, 2412, 2413, 2434, 2433
1799, 1972, 1973, 1994, 1993, 2413, 2414, 2435, 2434
1800, 1973, 1974, 1995, 1994, 2414, 2415, 2436, 2435
1801, 1975, 1976, 1997, 1996, 2416, 2417, 2438, 2437
1802, 1976, 1977, 1998, 1997, 2417, 2418, 2439, 2438
1803, 1977, 1978, 1999, 1998, 2418, 2419, 2440, 2439
1804, 1978, 1979, 2000, 1999, 2419, 2420, 2441, 2440
1805, 1979, 1980, 2001, 2000, 2420, 2421, 2442, 2441
1806, 1980, 1981, 2002, 2001, 2421, 2422, 2443, 2442
1807, 1981, 1982, 2003, 2002, 2422, 2423, 2444, 2443
1808, 1982, 1983, 2004, 2003, 2423, 2424, 2445, 2444
1809, 1983, 1984, 2005, 2004, 2424, 2425, 2446, 2445
1810, 1984, 1985, 2006, 2005, 2425, 2426, 2447, 2446
1811, 1985, 1986, 2007, 2006, 2426, 2427, 2448, 2447
1812, 1986, 1987, 2008, 2007, 2427, 2428, 2449, 2448
1813, 1987, 1988, 2009, 2008, 2428, 2429, 2450, 2449
1814, 1988, 1989, 2010, 2009, 2429, 2430, 2451, 2450
1815, 1989, 1990, 2011, 2010, 2430, 2431, 2452, 2451
1816, 1990, 1991, 2012, 2011, 2431, 2432, 2453, 2452
1817, 1991, 1992, 2013, 2012, 2432, 2433, 2454, 2453
1818, 1992, 1993, 2014, 2013, 2433, 2434, 2455, 2454
1819, 1993, 1994, 2015, 2014, 2434, 2435, 2456, 2455
1820, 1994, 1995, 2016, 2015, 2435, 2436, 2457, 2456
1821, 1996, 1997, 2018, 2017, 2437, 2438, 2459, 2458
1822, 1997, 1998, 2019, 2018, 2438, 2439, 2460, 2459
1823, 1998, 1999, 2020, 2019, 2439, 2440, 2461, 2460
1824, 1999, 2000, 2021, 2020, 2440, 2441, 2462, 2461
1825, 2000, 2001, 2022, 2021, 2441, 2442, 2463, 2462
1826, 2001, 2002, 2023, 2022, 2442, 2443, 2464, 2463
1827, 2002, 2003, 2024, 2023, 2443, 2444, 2465, 2464
1828, 2003, 2004, 2025, 2024, 2444, 2445, 2466, 2465
1829, 2004, 2005, 2026, 2025, 2445, 2446, 2467, 2466
1830, 2005, 2006, 2027, 2026, 2446, 2447, 2468, 2467
1831, 2006, 2007, 2028, 2027, 2447, 2448, 2469, 2468
1832, 2007, 2008, 2029, 2028, 2448, 2449, 2470, 2469
1833, 2008, 2009, 2030, 2029, 2449, 2450, 2471, 2470
1834, 2009, 2010, 2031, 2030, 2450, 2451, 2472, 2471
1835, 2010, 2011, 2032, 2031, 2451, 2452, 2473, 2472
1836, 2011, 2012, 2033, 2032, 2452, 2453, 2474, 2473
1837, 2012, 2013, 2034, 2033, 2453, 2454, 2475, 2474
1838, 2013, 2014, 2035, 2034, 2454, 2455, 2476, 2475
1839, 2014, 2015, 2036, 2035, 2455, 2456, 2477, 2476
1840, 2015, 2016, 2037, 2036, 2456, 2457, 2478, 2477
1841, 2017, 2018, 2039, 2038, 2458, 2459, 2480, 2479
1842, 2018, 2019, 2040, 2039, 2459, 2460, 2481, 2480
1843, 2019, 2020, 2041, 2040, 2460, 2461, 2482, 2481
1844, 2020, 2021, 2042, 2041, 2461, 2462, 2483, 2482
1845, 2021, 2022, 2043, 2042, 2462, 2463, 2484, 2483
1846, 2022, 2023, 2044, 2043, 2463, 2464, 2485, 2484
1847, 2023, 2024, 2045, 2044, 2464, 2465, 2486, 2485
1848, 2024, 2025, 2046, 2045, 2465, 2466, 2487, 2486
1849, 2025, 2026, 2047, 2046, 2466, 2467, 2488, 2487
1850, 2026, 2027, 2048, 2047, 2467, 2468, 2489, 2488
1851, 2027, 2028, 2049, 2048, 2468, 2469, 2490, 2489
1852, 2028, 2029, 2050, 2049, 2469, 2470, 2491, 2490
1853, 2029, 2030, 2051, 2050, 2470, 2471, 2492, 2491
1854, 2030, 2031, 2052, 2051, 2471, 2472, 2493, 2492
1855, 2031, 2032, 2053, 2052, 2472, 2473, 2494, 2493
1856, 2032, 2033, 2054, 2053, 2473, 2474, 2495, 2494
1857, 2033, 2034, 2055, 2054, 2474, 2475, 2496, 2495
1858, 2034, 2035, 2056, 2055, 2475, 2476, 2497, 2496
1859, 2035, 2036, 2057, 2056, 2476, 2477, 2498, 2497
1860, 2036, 2037, 2058, 2057, 2477, 2478, 2499, 2498
1861, 2038, 2039, 2060, 2059, 2479, 2480, 2501, 2500
1862, 2039, 2040, 2061, 2060, 2480, 2481, 2502, 2501
1863, 2040, 2041, 2062, 2061, 2481, 2482, 2503, 2502
1864, 2041, 2042, 2063, 2062, 2482, 2483, 2504, 2503
1865, 2042, 2043, 2064, 2063, 2483, 2484, 2505, 2504
1866, 2043, 2044, 2065, 2064, 2484, 2485, 2506, 2505
1867, 2044, 2045, 2066, 2065, 2485, 2486, 2507, 2506
1868, 2045, 2046, 2067, 2066, 2486, 2487, 2508, 2507
1869, 2046, 2047, 2068, 2067, 2487, 2488, 2509, 2508
1870, 2047, 2048, 2069, 2068, 2488, 2489, 2510, 2509
1871, 2048, 2049, 2070, 2069, 2489, 2490, 2511, 2510
1872, 2049, 2050, 2071, 2070, 2490, 2491, 2512, 2511
1873, 2050, 2051, 2072, 2071, 2491, 2492, 2513, 2512
1874, 2051, 2052, 2073, 2072, 2492, 2493, 2514, 2513
1875, 2052, 2053, 2074, 2073, 2493, 2494, 2515, 2514
1876, 2053, 2054, 2075, 2074, 2494, 2495, 2516, 2515
1877, 2054, 2055, 2076, 2075, 2495, 2496, 2517, 2516
1878, 2055, 2056, 2077, 2076, 2496, 2497, 2518, 2517
1879, 2056, 2057, 2078, 2077, 2497, 2498, 2519, 2518
1880, 2057, 2058, 2079, 2078, 2498, 2499, 2520, 2519
1881, 2059, 2060, 2081, 2080, 2500, 2501, 2522, 2521
1882, 2060, 2061, 2082, 2081, 2501, 2502, 2523, 2522
1883, 2061, 2062, 2083, 2082, 2502, 2503, 2524, 2523
1884, 2062, 2063, 2084, 2083, 2503, 2504, 2525, 2524
1885, 2063, 2064, 2085, 2084, 2504, 2505, 2526, 2525
1886, 2064, 2065, 2086, 2085, 2505, 2506, 2527, 2526
1887, 2065, 2066, 2087, 2086, 2506, 2507, 2528, 2527
1888, 2066, 2067, 2088, 2087, 2507, 2508, 2529, 2528
1889, 2067, 2068, 2089, 2088, 2508, 2509, 2530, 2529
1890, 2068, 2069, 2090, 2089, 2509, 2510, 2531, 2530
1891, 2069, 2070, 2091, 2090, 2510, 2511, 2532, 2531
1892, 2070, 2071, 2092, 2091, 2511, 2512, 2533, 2532
1893, 2071, 2072, 2093, 2092, 2512, 2513, 2534, 2533
1894, 2072, 2073, 2094, 2093, 2513, 2514, 2535, 2534
1895, 2073, 2074, 2095, 2094, 2514, 2515, 2536, 2535
1896, 2074, 2075, 2096, 2095, 2515, 2516, 2537, 2536
1897, 2075, 2076, 2097, 2096, 2516, 2517, 2538, 2537
1898, 2076, 2077, 2098, 2097, 2517, 2518, 2539, 2538
1899, 2077, 2078, 2099, 2098, 2518, 2519, 2540, 2539
1900, 2078, 2079, 2100, 2099, 2519, 2520, 2541, 2540
1901, 2080, 2081, 2102, 2101, 2521, 2522, 2543, 2542
1902, 2081, 2082, 2103, 2102, 2522, 2523, 2544, 2543
1903, 2082, 2083, 2104, 2103, 2523, 2524, 2545, 2544
1904, 2083, 2084, 2105, 2104, 2524, 2525, 2546, 2545
1905, 2084, 2085, 2106, 2105, 2525, 2526, 2547, 2546
1906, 2085, 2086, 2107, 2106, 2526, 2527, 2548, 2547
1907, 2086, 2087, 2108, 2107, 2527, 2528, 2549, 2548
1908, 2087, 2088, 2109, 2108, 2528, 2529, 2550, 2549
1909, 2088, 2089, 2110, 2109, 2529, 2530, 2551, 2550
1910, 2089, 2090, 2111, 2110, 2530, 2531, 2552, 2551
1911, 2090, 2091, 2112, 2111, 2531, 2532, 2553, 2552
1912, 2091, 2092, 2113, 2112, 2532, 2533, 2554, 2553
1913, 2092, 2093, 2114, 2113, 2533, 2534, 2555, 2554
1914, 2093, 2094, 2115, 2114, 2534, 2535, 2556, 2555
1915, 2094, 2095, 2116, 2115, 2535, 2536, 2557, 2556
1916, 2095, 2096, 2117, 2116, 2536, 2537, 2558, 2557
1917, 2096, 2097, 2118, 2117, 2537, 2538, 2559, 2558
1918, 2097, 2098, 2119, 2118, 2538, 2539, 2560, 2559
1919, 2098, 2099, 2120, 2119, 2539, 2540, 2561, 2560
1920, 2099, 2100, 2121, 2120, 2540, 2541, 2562, 2561
1921, 2101, 2102, 2123, 2122, 2542, 2543, 2564, 2563
1922, 2102, 2103, 2124, 2123, 2543, 2544, 2565, 2564
1923, 2103, 2104, 2125, 2124, 2544, 2545, 2566, 2565
1924, 2104, 2105, 2126, 2125, 2545, 2546, 2567, 2566
1925, 2105, 2106, 2127, 2126, 2546, 2547, 2568, 2567
1926, 2106, 2107, 2128, 2127, 2547, 2548, 2569, 2568
1927, 2107, 2108, 2129, 2128, 2548, 2549, 2570, 2569
1928, 2108, 2109, 2130, 2129, 2549, 2550, 2571, 2570
1929, 2109, 2110, 2131, 2130, 2550, 2551, 2572, 2571
1930, 2110, 2111, 2132, 2131, 2551, 2552, 2573, 2572
1931, 2111, 2112, 2133, 2132, 2552, 2553, 2574, 2573
1932, 2112, 2113, 2134, 2133, 2553, 2554, 2575, 2574
1933, 2113, 2114, 2135, 2134, 2554, 2555, 2576, 2575
1934, 2114, 2115, 2136, 2135, 2555, 2556, 2577, 2576
1935, 2115, 2116, 2137, 2136, 2556, 2557, 2578, 2577
1936, 2116, 2117, 2138, 2137, 2557, 2558, 2579, 2578
1937, 2117, 2118, 2139, 2138, 2558, 2559, 2580, 2579
1938, 2118, 2119, 2140, 2139, 2559, 2560, 2581, 2580
1939, 2119, 2120, 2141, 2140, 2560, 2561, 2582, 2581
1940, 2120, 2121, 2142, 2141, 2561, 2562, 2583, 2582
1941, 2122, 2123, 2144, 2143, 2563, 2564, 2585, 2584
1942, 2123, 2124, 2145, 2144, 2564, 2565, 2586, 2585
1943, 2124, 2125, 2146, 2145, 2565, 2566, 2587, 2586
1944, 2125, 2126, 2147, 2146, 2566, 2567, 2588, 2587
1945, 2126, 2127, 2148, 2147, 2567, 2568, 2589, 2588
1946, 2127, 2128, 2149, 2148, 2568, 2569, 2590, 2589
1947, 2128, 2129, 2150, 2149, 2569, 2570, 2591, 2590
1948, 2129, 2130, 2151, 2150, 2570, 2571, 2592, 2591
1949, 2130, 2131, 2152, 2151, 2571, 2572, 2593, 2592
1950, 2131, 2132, 2153, 2152, 2572, 2573, 2594, 2593
1951, 2132, 2133, 2154, 2153, 2573, 2574, 2595, 2594
1952, 2133, 2134, 2155, 2154, 2574, 2575, 2596, 2595
1953, 2134, 2135, 2156, 2155, 2575, 2576, 2597, 2596
1954, 2135, 2136, 2157, 2156, 2576, 2577, 2598, 2597
1955, 2136, 2137, 2158, 2157, 2577, 2578, 2599, 2598
1956, 2137, 2138, 2159, 2158, 2578, 2579, 2600, 2599
1957, 2138, 2139, 2160, 2159, 2579, 2580, 2601, 2600
1958, 2139, 2140, 2161, 2160, 2580, 2581, 2602, 2601
1959, 2140, 2141, 2162, 2161, 2581, 2582, 2603, 2602
1960, 2141, 2142, 2163, 2162, 2582, 2583, 2604, 2603
1961, 2143, 2144, 2165, 2164, 2584, 2585, 2606, 2605
1962, 2144, 2145, 2166, 2165, 2585, 2586, 2607, 2606
1963, 2145, 2146, 2167, 2166, 2586, 2587, 2608, 2607
1964, 2146, 2147, 2168, 2167, 2587, 2588, 2609, 2608
1965, 2147, 2148, 2169, 2168, 2588, 2589, 2610, 2609
1966, 2148, 2149, 2170, 2169, 2589, 2590, 2611, 2610
1967, 2149, 2150, 2171, 2170, 2590, 2591, 2612, 2611
1968, 2150, 2151, 2172, 2171, 2591, 2592, 2613, 2612
1969, 2151, 2152, 2173, 2172, 2592, 2593, 2614, 2613
1970, 2152, 2153, 2174, 2173, 2593, 2594, 2615, 2614
1971, 2153, 2154, 2175, 2174, 2594, 2595, 2616, 2615
1972, 2154, 2155, 2176, 2175, 2595, 2596, 2617, 2616
1973, 2155, 2156, 2177, 2176, 2596, 2597, 2618, 2617
1974, 2156, 2157, 2178, 2177, 2597, 2598, 2619, 2618
1975, 2157, 2158, 2179, 2178, 2598, 2599, 2620, 2619
1976, 2158, 2159, 2180, 2179, 2599, 2600, 2621, 2620
1977, 2159, 2160, 2181, 2180, 2600, 2601, 2622, 2621
1978, 2160, 2161, 2182, 2181, 2601, 2602, 2623, 2622
1979, 2161, 2162, 2183, 2182, 2602, 2603, 2624, 2623
1980, 2162, 2163, 2184, 2183, 2603, 2604, 2625, 2624
1981, 2164, 2165, 2186, 2185, 2605, 2606, 2627, 2626
1982, 2165, 2166, 2187, 2186, 2606, 2607, 2628, 2627
1983, 2166, 2167, 2188, 2187, 2607, 2608, 2629, 2628
1984, 2167, 2168, 2189, 2188, 2608, 2609, 2630, 2629
1985, 2168, 2169, 2190, 2189, 2609, 2610, 2631, 2630
1986, 2169, 2170, 2191, 2190, 2610, 2611, 2632, 2631
1987, 2170, 2171, 2192, 2191, 2611, 2612, 2633, 2632
1988, 2171, 2172, 2193, 2192, 2612, 2613, 2634, 2633
1989, 2172, 2173, 2194, 2193, 2613, 2614, 2635, 2634
1990, 2173, 2174, 2195, 2194, 2614, 2615, 2636, 2635
1991, 2174, 2175, 2196, 2195, 2615, 2616, 2637, 2636
1992, 2175, 2176, 2197, 2196, 2616, 2617, 2638, 2637
1993, 2176, 2177, 2198, 2197, 2617, 2618, 2639, 2638
1994, 2177, 2178, 2199, 2198, 2618, 2619, 2640, 2639
1995, 2178, 2179, 2200, 2199, 2619, 2620, 2641, 2640
1996, 2179, 2180, 2201, 2200, 2620, 2621, 2642, 2641
1997, 2180, 2181, 2202, 2201, 2621, 2622, 2643, 2642
1998, 2181, 2182, 2203, 2202, 2622, 2623, 2644, 2643
1999, 2182, 2183, 2204, 2203, 2623, 2624, 2645, 2644
2000, 2183, 2184, 2205, 2204, 2624, 2625, 2646, 2645
2001, 2206, 2207, 2228, 2227, 2647, 2648, 2669, 2668
2002, 2207, 2208, 2229, 2228, 2648, 2649, 2670, 2669
2003, 2208, 2209, 2230, 2229, 2649, 2650, 2671, 2670
2004, 2209, 2210, 2231, 2230, 2650, 2651, 2672, 2671
2005, 2210, 2211, 2232, 2231, 2651, 2652, 2673, 2672
2006, 2211, 2212, 2233, 2232, 2652, 2653, 2674, 2673
2007, 2212, 2213, 2234, 2233, 2653, 2654, 2675, 2674
2008, 2213, 2214, 2235, 2234, 2654, 2655, 2676, 2675
2009, 2214, 2215, 2236, 2235, 2655, 2656, 2677, 2676
2010, 2215, 2216, 2237, 2236, 2656, 2657, 2678, 2677
2011, 2216, 2217, 2238, 2237, 2657, 2658, 2679, 2678
2012, 2217, 2218, 2239, 2238, 2658, 2659, 2680, 2679
2013, 2218, 2219, 2240, 2239, 2659, 2660, 2681, 2680
2014, 2219, 2220, 2241, 2240, 2660, 2661, 2682, 2681
2015, 2220, 2221, 2242, 2241, 2661, 2662, 2683, 2682
2016, 2221, 2222, 2243, 2242, 2662, 2663, 2684, 2683
2017, 2222, 2223, 2244, 2243, 2663, 2664, 2685, 2684
2018, 2223, 2224, 2245, 2244, 2664, 2665, 2686, 2685
2019, 2224, 2225, 2246, 2245, 2665, 2666, 2687, 2686
2020, 2225, 2226, 2247, 2246, 2666, 2667, 2688, 2687
2021, 2227, 2228, 2249, 2248, 2668, 2669, 2690, 2689
2022, 2228, 2229, 2250, 2249, 2669, 2670, 2691, 2690
2023, 2229, 2230, 2251, 2250, 2670, 2671, 2692, 2691
2024, 2230, 2231, 2252, 2251, 2671, 2672, 2693, 2692
2025, 2231, 2232, 2253, 2252, 2672, 2673, 2694, 2693
2026, 2232, 2233, 2254, 2253, 2673, 2674, 2695, 2694
2027, 2233, 2234, 2255, 2254, 2674, 2675, 2696, 2695
2028, 2234, 2235, 2256, 2255, 2675, 2676, 2697, 2696
2029, 2235, 2236, 2257, 2256, 2676, 2677, 2698, 2697
2030, 2236, 2237, 2258, 2257, 2677, 2678, 2699, 2698
2031, 2237, 2238, 2259, 2258, 2678, 2679, 2700, 2699
2032, 2238, 2239, 2260, 2259, 2679, 2680, 2701, 2700
2033, 2239, 2240, 2261, 2260, 2680, 2681, 2702, 2701
2034, 2240, 2241, 2262, 2261, 2681, 2682, 2703, 2702
2035, 2241, 2242, 2263, 2262, 2682, 2683, 2704, 2703
2036, 2242, 2243, 2264, 2263, 2683, 2684, 2705, 2704
2037, 2243, 2244, 2265, 2264, 2684, 2685, 2706, 2705
2038, 2244, 2245, 2266, 2265, 2685, 2686, 2707, 2706
2039, 2245, 2246, 2267, 2266, 2686, 2687, 2708, 2707
2040, 2246, 2247, 2268, 2267, 2687, 2688, 2709, 2708
2041, 2248, 2249, 2270, 2269, 2689, 2690, 2711, 2710
2042, 2249, 2250, 2271, 2270, 2690, 2691, 2712, 2711
2043, 2250, 2251, 2272, 2271, 2691, 2692, 2713, 2712
2044, 2251, 2252, 2273, 2272, 2692, 2693, 2714, 2713
2045, 2252, 2253, 2274, 2273, 2693, 2694, 2715, 2714
2046, 2253, 2254, 2275, 2274, 2694, 2695, 2716, 2715
2047, 2254, 2255, 2276, 2275, 2695, 2696, 2717, 2716
2048, 2255, 2256, 2277, 2276, 2696, 2697, 2718, 2717
2049, 2256, 2257, 2278, 2277, 2697, 2698, 2719, 2718
2050, 2257, 2258, 2279, 2278, 2698, 2699, 2720, 2719
2051, 2258, 2259, 2280, 2279, 2699, 2700, 2721, 2720
2052, 2259, 2260, 2281, 2280, 2700, 2701, 2722, 2721
2053, 2260, 2261, 2282, 2281, 2701, 2702, 2723, 2722
2054, 2261, 2262, 2283, 2282, 2702, 2703, 2724, 2723
2055, 2262, 2263, 2284, 2283, 2703, 2704, 2725, 2724
2056, 2263, 2264, 2285, 2284, 2704, 2705, 2726, 2725
2057, 2264, 2265, 2286, 2285, 2705, 2706, 2727, 2726
2058, 2265, 2266, 2287, 2286, 2706, 2707, 2728, 2727
2059, 2266, 2267, 2288, 2287, 2707, 2708, 2729, 2728
2060, 2267, 2268, 2289, 2288, 2708, 2709, 2730, 2729
2061, 2269, 2270, 2291, 2290, 2710, 2711, 2732, 2731
2062, 2270, 2271, 2292, 2291, 2711, 2712, 2733, 2732
2063, 2271, 2272, 2293, 2292, 2712, 2713, 2734, 2733
2064, 2272, 2273, 2294, 2293, 2713, 2714, 2735, 2734
2065, 2273, 2274, 2295, 2294, 2714, 2715, 2736, 2735
2066, 2274, 2275, 2296, 2295, 2715, 2716, 2737, 2736
2067, 2275, 2276, 2297, 2296, 2716, 2717, 2738, 2737
2068, 2276, 2277, 2298, 2297, 2717, 2718, 2739, 2738
2069, 2277, 2278, 2299, 2298, 2718, 2719, 2740, 2739
2070, 2278, 2279, 2300, 2299, 2719, 2720, 2741, 2740
2071, 2279, 2280, 2301, 2300, 2720, 2721, 2742, 2741
2072, 2280, 2281, 2302, 2301, 2721, 2722, 2743, 2742
2073, 2281, 2282, 2303, 2302, 2722, 2723, 2744, 2743
2074, 2282, 2283, 2304, 2303, 2723, 2724, 2745, 2744
2075, 2283, 2284, 2305, 2304, 2724, 2725, 2746, 2745
2076, 2284, 2285, 2306, 2305, 2725, 2726, 2747, 2746
2077, 2285, 2286, 2307, 2306, 2726, 2727, 2748, 2747
2078, 2286, 2287, 2308, 2307, 2727, 2728, 2749, 2748
2079, 2287, 2288, 2309, 2308, 2728, 2729, 2750, 2749
2080, 2288, 2289, 2310, 2309, 2729, 2730, 2751, 2750
2081, 2290, 2291, 2312, 2311, 2731, 2732, 2753, 2752
2082, 2291, 2292, 2313, 2312, 2732, 2733, 2754, 2753
2083, 2292, 2293, 2314, 2313, 2733, 2734, 2755, 2754
2084, 2293, 2294, 2315, 2314, 2734, 2735, 2756, 2755
2085, 2294, 2295, 2316, 2315, 2735, 2736, 2757, 2756
2086, 2295, 2296, 2317, 2316, 2736, 2737, 2758, 2757
2087, 2296, 2297, 2318, 2317, 2737, 2738, 2759, 2758
2088, 2297, 2298, 2319, 2318, 2738, 2739, 2760, 2759
2089, 2298, 2299, 2320, 2319, 2739, 2740, 2761, 2760
2090, 2299, 2300, 2321, 2320, 2740, 2741, 2762, 2761
2091, 2300, 2301, 2322, 2321, 2741, 2742, 2763, 2762
2092, 2301, 2302, 2323, 2322, 2742, 2743, 2764, 2763
2093, 2302, 2303, 2324, 2323, 2743, 2744, 2765, 2764
2094, 2303, 2304, 2325, 2324, 2744, 2745, 2766, 2765
2095, 2304, 2305, 2326, 2325, 2745, 2746, 2767, 2766
2096, 2305, 2306, 2327, 2326, 2746, 2747, 2768, 2767
2097, 2306, 2307, 2328, 2327, 2747, 2748, 2769, 2768
2098, 2307, 2308, 2329, 2328, 2748, 2749, 2770, 2769
2099, 2308, 2309, 2330, 2329, 2749, 2750, 2771, 2770
2100, 2309, 2310, 2331, 2330, 2750, 2751, 2772, 2771
2101, 2311, 2312, 2333, 2332, 2752, 2753, 2774, 2773
2102, 2312, 2313, 2334, 2333, 2753, 2754, 2775, 2774
2103, 2313, 2314, 2335, 2334, 2754, 2755, 2776, 2775
2104, 2314, 2315, 2336, 2335, 2755, 2756, 2777, 2776
2105, 2315, 2316, 2337, 2336, 2756, 2757, 2778, 2777
2106, 2316, 2317, 2338, 2337, 2757, 2758, 2779, 2778
2107, 2317, 2318, 2339, 2338, 2758, 2759, 2780, 2779
2108, 2318, 2319, 2340, 2339, 2759, 2760, 2781, 2780
2109, 2319, 2320, 2341, 2340, 2760, 2761, 2782, 2781
2110, 2320, 2321, 2342, 2341, 2761, 2762, 2783, 2782
2111, 2321, 2322, 2343, 2342, 2762, 2763, 2784, 2783
2112, 2322, 2323, 2344, 2343, 2763, 2764, 2785, 2784
2113, 2323, 2324, 2345, 2344, 2764, 2765, 2786, 2785
2114, 2324, 2325, 2346, 2345, 2765, 2766, 2787, 2786
2115, 2325, 2326, 2347, 2346, 2766, 2767, 2788, 2787
2116, 2326, 2327, 2348, 2347, 2767, 2768, 2789, 2788
2117, 2327, 2328, 2349, 2348, 2768, 2769, 2790, 2789
2118, 2328, 2329, 2350, 2349, 2769, 2770, 2791, 2790
2119, 2329, 2330, 2351, 2350, 2770, 2771, 2792, 2791
2120, 2330, 2331, 2352, 2351, 2771, 2772, 2793, 2792
2121, 2332, 2333, 2354, 2353, 2773, 2774, 2795, 2794
2122, 2333, 2334, 2355, 2354, 2774, 2775, 2796, 2795
2123, 2334, 2335, 2356, 2355, 2775, 2776, 2797, 2796
2124, 2335, 2336, 2357, 2356, 2776, 2777, 2798, 2797
2125, 2336, 2337, 2358, 2357, 2777, 2778, 2799, 2798
2126, 2337, 2338, 2359, 2358, 2778, 2779, 2800, 2799
2127, 2338, 2339, 2360, 2359, 2779, 2780, 2801, 2800
2128, 2339, 2340, 2361, 2360, 2780, 2781, 2802, 2801
2129, 2340, 2341, 2362, 2361, 2781, 2782, 2803, 2802
2130, 2341, 2342, 2363, 2362, 2782, 2783, 2804, 2803
2131, 2342, 2343, 2364, 2363, 2783, 2784, 2805, 2804
2132, 2343, 2344, 2365, 2364, 2784, 2785, 2806, 2805
2133, 2344, 2345, 2366, 2365, 2785, 2786, 2807, 2806
2134, 2345, 2346, 2367, 2366, 2786, 2787, 2808, 2807
2135, 2346, 2347, 2368, 2367, 2787, 2788, 2809, 2808
2136, 2347, 2348, 2369, 2368, 2788, 2789, 2810, 2809
2137, 2348, 2349, 2370, 2369, 2789, 2790, 2811, 2810
2138, 2349, 2350, 2371, 2370, 2790, 2791, 2812, 2811
2139, 2350, 2351, 2372, 2371, 2791, 2792, 2813, 2812
2140, 2351, 2352, 2373, 2372, 2792, 2793, 2814, 2813
2141, 2353, 2354, 2375, 2374, 2794, 2795, 2816, 2815
2142, 2354, 2355, 2376, 2375, 2795, 2796, 2817, 2816
2143, 2355, 2356, 2377, 2376, 2796, 2797, 2818, 2817
2144, 2356, 2357, 2378, 2377, 2797, 2798, 2819, 2818
2145, 2357, 2358, 2379, 2378, 2798, 2799, 2820, 2819
2146, 2358, 2359, 2380, 2379, 2799, 2800, 2821, 2820
2147, 2359, 2360, 2381, 2380, 2800, 2801, 2822, 2821
2148, 2360, 2361, 2382, 2381, 2801, 2802, 2823, 2822
2149, 2361, 2362, 2383, 2382, 2802, 2803, 2824, 2823
2150, 2362, 2363, 2384, 2383, 2803, 2804, 2825, 2824
2151, 2363, 2364, 2385, 2384, 2804, 2805, 2826, 2825
2152, 2364, 2365, 2386, 2385, 2805, 2806, 2827, 2826
2153, 2365, 2366, 2387, 2386, 2806, 2807, 2828, 2827
2154, 2366, 2367, 2388, 2387, 2807, 2808, 2829, 2828
2155, 2367, 2368, 2389, 2388, 2808, 2809, 2830, 2829
2156, 2368, 2369, 2390, 2389, 2809, 2810, 2831, 2830
2157, 2369, 2370, 2391, 2390, 2810, 2811, 2832, 2831
2158, 2370, 2371, 2392, 2391, 2811, 2812, 2833, 2832
2159, 2371, 2372, 2393, 2392, 2812, 2813, 2834, 2833
2160, 2372, 2373, 2394, 2393, 2813, 2814, 2835, 2834
2161, 2374, 2375, 2396, 2395, 2815, 2816, 2837, 2836
2162, 2375, 2376, 2397, 2396, 2816, 2817, 2838, 2837
2163, 2376, 2377, 2398, 2397, 2817, 2818, 2839, 2838
2164, 2377, 2378, 2399, 2398, 2818, 2819, 2840, 2839
2165, 2378, 2379, 2400, 2399, 2819, 2820, 2841, 2840
2166, 2379, 2380, 2401, 2400, 2820, 2821, 2842, 2841
2167, 2380, 2381, 2402, 2401, 2821, 2822, 2843, 2842
2168, 2381, 2382, 2403, 2402, 2822, 2823, 2844, 2843
2169, 2382, 2383, 2404, 2403, 2823, 2824, 2845, 2844
2170, 2383, 2384, 2405, 2404, 2824, 2825, 2846, 2845
2171, 2384, 2385, 2406, 2405, 2825, 2826, 2847, 2846
2172, 2385, 2386, 2407, 2406, 2826, 2827, 2848, 2847
2173, 2386, 2387, 2408, 2407, 2827, 2828, 2849, 2848
2174, 2387, 2388, 2409, 2408, 2828, 2829, 2850, 2849
2175, 2388, 2389, 2410, 2409, 2829, 2830, 2851, 2850
2176, 2389, 2390, 2411, 2410, 2830, 2831, 2852, 2851
2177, 2390, 2391, 2412, 2411, 2831, 2832, 2853, 2852
2178, 2391, 2392, 2413, 2412, 2832, 2833, 2854, 2853
2179, 2392, 2393, 2414, 2413, 2833, 2834, 2855, 2854
2180, 2393, 2394, 2415, 2414, 2834, 2835, 2856, 2855
2181, 2395, 2396, 2417, 2416, 2836, 2837, 2858, 2857
2182, 2396, 2397, 2418, 2417, 2837, 2838, 2859, 2858
2183, 2397, 2398, 2419, 2418, 2838, 2839, 2860, 2859
2184, 2398, 2399, 2420, 2419, 2839, 2840, 2861, 2860
2185, 2399, 2400, 2421, 2420, 2840, 2841, 2862, 2861
2186, 2400, 2401, 2422, 2421, 2841, 2842, 2863, 2862
2187, 2401, 2402, 2423, 2422, 2842, 2843, 2864, 2863
2188, 2402, 2403, 2424, 2423, 2843, 2844, 2865, 2864
2189, 2403, 2404, 2425, 2424, 2844, 2845, 2866, 2865
2190, 2404, 2405, 2426, 2425, 2845, 2846, 2867, 2866
2191, 2405, 2406, 2427, 2426, 2846, 2847, 2868, 2867
2192, 2406, 2407, 2428, 2427, 2847, 2848, 2869, 2868
2193, 2407, 2408, 2429, 2428, 2848, 2849, 2870, 2869
2194, 2408, 2409, 2430, 2429, 2849, 2850, 2871, 2870
2195, 2409, 2410, 2431, 2430, 2850, 2851, 2872, 2871
2196, 2410, 2411, 2432, 2431, 2851, 2852, 2873, 2872
2197, 2411, 2412, 2433, 2432, 2852, 2853, 2874, 2873
2198, 2412, 2413, 2434, 2433, 2853, 2854, 2875, 2874
2199, 2413, 2414, 2435, 2434, 2854, 2855, 2876, 2875
2200, 2414, 2415, 2436, 2435, 2855, 2856, 2877, 2876
2201, 2416, 2417, 2438, 2437, 2857, 2858, 2879, 2878
2202, 2417, 2418, 2439, 2438, 2858, 2859, 2880, 2879
2203, 2418, 2419, 2440, 2439, 2859, 2860, 2881, 2880
2204, 2419, 2420, 2441, 2440, 2860, 2861, 2882, 2881
2205, 2420, 2421, 2442, 2441, 2861, 2862, 2883, 2882
2206, 2421, 2422, 2443, 2442, 2862, 2863, 2884, 2883
2207, 2422, 2423, 2444, 2443, 2863, 2864, 2885, 2884
2208, 2423, 2424, 2445, 2444, 2864, 2865, 2886, 2885
2209, 2424, 2425, 2446, 2445, 2865, 2866, 2887, 2886
2210, 2425, 2426, 2447, 2446, 2866, 2867, 2888, 2887
2211, 2426, 2427, 2448, 2447, 2867, 2868, 2889, 2888
2212, 2427, 2428, 2449, 2448, 2868, 2869, 2890, 2889
2213, 2428, 2429, 2450, 2449, 2869, 2870, 2891, 2890
2214, 2429, 2430, 2451, 2450, 2870, 2871, 2892, 2891
2215, 2430, 2431, 2452, 2451, 2871, 2872, 2893, 2892
2216, 2431, 2432, 2453, 2452, 2872, 2873, 2894, 2893
2217, 2432, 2433, 2454, 2453, 2873, 2874, 2895, 2894
2218, 2433, 2434, 2455, 2454, 2874, 2875, 2896, 2895
2219, 2434, 2435, 2456, 2455, 2875, 2876, 2897, 2896
2220, 2435, 2436, 2457, 2456, 2876, 2877, 2898, 2897
2221, 2437, 2438, 2459, 2458, 2878, 2879, 2900, 2899
2222, 2438, 2439, 2460, 2459, 2879, 2880, 2901, 2900
2223, 2439, 2440, 2461, 2460, 2880, 2881, 2902, 2901
2224, 2440, 2441, 2462, 2461, 2881, 2882, 2903, 2902
2225, 2441, 2442, 2463, 2462, 2882, 2883, 2904, 2903
2226, 2442, 2443, 2464, 2463, 2883, 2884, 2905, 2904
2227, 2443, 2444, 2465, 2464, 2884, 2885, 2906, 2905
2228, 2444, 2445, 2466, 2465, 2885, 2886, 2907, 2906
2229, 2445, 2446, 2467, 2466, 2886, 2887, 2908, 2907
2230, 2446, 2447, 2468, 2467, 2887, 2888, 2909, 2908
2231, 2447, 2448, 2469, 2468, 2888, 2889, 2910, 2909
2232, 2448, 2449, 2470, 2469, 2889, 2890, 2911, 2910
2233, 2449, 2450, 2471, 2470, 2890, 2891, 2912, 2911
2234, 2450, 2451, 2472, 2471, 2891, 2892, 2913, 2912
2235, 2451, 2452, 2473, 2472, 2892, 2893, 2914, 2913
2236, 2452, 2453, 2474, 2473, 2893, 2894, 2915, 2914
2237, 2453, 2454, 2475, 2474, 2894, 2895, 2916, 2915
2238, 2454, 2455, 2476, 2475, 2895, 2896, 2917, 2916
2239, 2455, 2456, 2477, 2476, 2896, 2897, 2918, 2917
2240, 2456, 2457, 2478, 2477, 2897, 2898, 2919, 2918
2241, 2458, 2459, 2480, 2479, 2899, 2900, 2921, 2920
2242, 2459, 2460, 2481, 2480, 2900, 2901, 2922, 2921
2243, 2460, 2461, 2482, 2481, 2901, 2902, 2923, 2922
2244, 2461, 2462, 2483, 2482, 2902, 2903, 2924, 2923
2245, 2462, 2463, 2484, 2483, 2903, 2904, 2925, 2924
2246, 2463, 2464, 2485, 2484, 2904, 2905, 2926, 2925
2247, 2464, 2465, 2486, 2485, 2905, 2906, 2927, 2926
2248, 2465, 2466, 2487, 2486, 2906, 2907, 2928, 2927
2249, 2466, 2467, 2488, 2487, 2907, 2908, 2929, 2928
2250, 2467, 2468, 2489, 2488, 2908, 2909, 2930, 2929
2251, 2468, 2469, 2490, 2489, 2909, 2910, 2931, 2930
2252, 2469, 2470, 2491, 2490, 2910, 2911, 2932, 2931
2253, 2470, 2471, 2492, 2491, 2911, 2912, 2933, 2932
2254, 2471, 2472, 2493, 2492, 2912, 2913, 2934, 2933
2255, 2472, 2473, 2494, 2493, 2913, 2914, 2935, 2934
2256, 2473, 2474, 2495, 2494, 2914, 2915, 2936, 2935
2257, 2474, 2475, 2496, 2495, 2915, 2916, 2937, 2936
2258, 2475, 2476, 2497, 2496, 2916, 2917, 2938, 2937
2259, 2476, 2477, 2498, 2497, 2917, 2918, 2939, 2938
2260, 2477, 2478, 2499, 2498, 2918, 2919, 2940, 2939
2261, 2479, 2480, 2501, 2500, 2920, 2921, 2942, 2941
2262, 2480, 2481, 2502, 2501, 2921, 2922, 2943, 2942
2263, 2481, 2482, 2503, 2502, 2922, 2923, 2944, 2943
2264, 2482, 2483, 2504, 2503, 2923, 2924, 2945, 2944
2265, 2483, 2484, 2505, 2504, 2924, 2925, 2946, 2945
2266, 2484, 2485, 2506, 2505, 2925, 2926, 2947, 2946
2267, 2485, 2486, 2507, 2506, 2926, 2927, 2948, 2947
2268, 2486, 2487, 2508, 2507, 2927, 2928, 2949, 2948
2269, 2487, 2488, 2509, 2508, 2928, 2929, 2950, 2949
2270, 2488, 2489, 2510, 2509, 2929, 2930, 2951, 2950
2271, 2489, 2490, 2511, 2510, 2930, 2931, 2952, 2951
2272, 2490, 2491, 2512, 2511, 2931, 2932, 2953, 2952
2273, 2491, 2492, 2513, 2512, 2932, 2933, 2954, 2953
2274, 2492, 2493, 2514, 2513, 2933, 2934, 2955, 2954
2275, 2493, 2494, 2515, 2514, 2934, 2935, 2956, 2955
2276, 2494, 2495, 2516, 2515, 2935, 2936, 2957, 2956
2277, 2495, 2496, 2517, 2516, 2936, 2937, 2958, 2957
2278, 2496, 2497, 2518, 2517, 2937, 2938, 2959, 2958
2279, 2497, 2498, 2519, 2518, 2938, 2939, 2960, 2959
2280, 2498, 2499, 2520, 2519, 2939, 2940, 2961, 2960
2281, 2500, 2501, 2522, 2521, 2941, 2942, 2963, 2962
2282, 2501, 2502, 2523, 2522, 2942, 2943, 2964, 2963
2283, 2502, 2503, 2524, 2523, 2943, 2944, 2965, 2964
2284, 2503, 2504, 2525, 2524, 2944, 2945, 2966, 2965
2285, 2504, 2505, 2526, 2525, 2945, 2946, 2967, 2966
2286, 2505, 2506, 2527, 2526, 2946, 2947, 2968, 2967
2287, 2506, 2507, 2528, 2527, 2947, 2948, 2969, 2968
2288, 2507, 2508, 2529, 2528, 2948, 2949, 2970, 2969
2289, 2508, 2509, 2530, 2529, 2949, 2950, 2971, 2970
2290, 2509, 2510, 2531, 2530, 2950, 2951, 2972, 2971
2291, 2510, 2511, 2532, 2531, 2951, 2952, 2973, 2972
2292, 2511, 2512, 2533, 2532, 2952, 2953, 2974, 2973
2293, 2512, 2513, 2534, 2533, 2953, 2954, 2975, 2974
2294, 2513, 2514, 2535, 2534, 2954, 2955, 2976, 2975
2295, 2514, 2515, 2536, 2535, 2955, 2956, 2977, 2976
2296, 2515, 2516, 2537, 2536, 2956, 2957, 2978, 2977
2297, 2516, 2517, 2538, 2537, 2957, 2958, 2979, 2978
2298, 2517, 2518, 2539, 2538, 2958, 2959, 2980, 2979
2299, 2518, 2519, 2540, 2539, 2959, 2960, 2981, 2980
2300, 2519, 2520, 2541, 2540, 2960, 2961, 2982, 2981
2301, 2521, 2522, 2543, 2542, 2962, 2963, 2984, 2983
2302, 2522, 2523, 2544, 2543, 2963, 2964, 2985, 2984
2303, 2523, 2524, 2545, 2544, 2964, 2965, 2986, 2985
2304, 2524, 2525, 2546, 2545, 2965, 2966, 2987, 2986
2305, 2525, 2526, 2547, 2546, 2966, 2967, 2988, 2987
2306, 2526, 2527, 2548, 2547, 2967, 2968, 2989, 2988
2307, 2527, 2528, 2549, 2548, 2968, 2969, 2990, 2989
2308, 2528, 2529, 2550, 2549, 2969, 2970, 2991, 2990
2309, 2529, 2530, 2551, 2550, 2970, 2971, 2992, 2991
2310, 2530, 2531, 2552, 2551, 2971, 2972, 2993, 2992
2311, 2531, 2532, 2553, 2552, 2972, 2973, 2994, 2993
2312, 2532, 2533, 2554, 2553, 2973, 2974, 2995, 2994
2313, 2533, 2534, 2555, 2554, 2974, 2975, 2996, 2995
2314, 2534, 2535, 2556, 2555, 2975, 2976, 2997, 2996
2315, 2535, 2536, 2557, 2556, 2976, 2977, 2998, 2997
2316, 2536, 2537, 2558, 2557, 2977, 2978, 2999, 2998
2317, 2537, 2538, 2559, 2558, 2978, 2979, 3000, 2999
2318, 2538, 2539, 2560, 2559, 2979, 2980, 3001, 3000
2319, 2539, 2540, 2561, 2560, 2980, 2981, 3002, 3001
2320, 2540, 2541, 2562, 2561, 2981, 2982, 3003, 3002
2321, 2542, 2543, 2564, 2563, 2983, 2984, 3005, 3004
2322, 2543, 2544, 2565, 2564, 2984, 2985, 3006, 3005
2323, 2544, 2545, 2566, 2565, 2985, 2986, 3007, 3006
2324, 2545, 2546, 2567, 2566, 2986, 2987, 3008, 3007
2325, 2546, 2547, 2568, 2567, 2987, 2988, 3009, 3008
2326, 2547, 2548, 2569, 2568, 2988, 2989, 3010, 3009
2327, 2548, 2549, 2570, 2569, 2989, 2990, 3011, 3010
2328, 2549, 2550, 2571, 2570, 2990, 2991, 3012, 3011
2329, 2550, 2551, 2572, 2571, 2991, 2992, 3013, 3012
2330, 2551, 2552, 2573, 2572, 2992, 2993, 3014, 3013
2331, 2552, 2553, 2574, 2573, 2993, 2994, 3015, 3014
2332, 2553, 2554, 2575, 2574, 2994, 2995, 3016, 3015
2333, 2554, 2555, 2576, 2575, 2995, 2996, 3017, 3016
2334, 2555, 2556, 2577, 2576, 2996, 2997, 3018, 3017
2335, 2556, 2557, 2578, 2577, 2997, 2998, 3019, 3018
2336, 2557, 2558, 2579, 2578, 2998, 2999, 3020, 3019
2337, 2558, 2559, 2580, 2579, 2999, 3000, 3021, 3020
2338, 2559, 2560, 2581, 2580, 3000, 3001, 3022, 3021
2339, 2560, 2561, 2582, 2581, 3001, 3002, 3023, 3022
2340, 2561, 2562, 2583, 2582, 3002, 3003, 3024, 3023
2341, 2563, 2564, 2585, 2584, 3004, 3005, 3026, 3025
2342, 2564, 2565, 2586, 2585, 3005, 3006, 3027, 3026
2343, 2565, 2566, 2587, 2586, 3006, 3007, 3028, 3027
2344, 2566, 2567, 2588, 2587, 3007, 3008, 3029, 3028
2345, 2567, 2568, 2589, 2588, 3008, 3009, 3030, 3029
2346, 2568, 2569, 2590, 2589, 3009, 3010, 3031, 3030
2347, 2569, 2570, 2591, 2590, 3010, 3011, 3032, 3031
2348, 2570, 2571, 2592, 2591, 3011, 3012, 3033, 3032
2349, 2571, 2572, 2593, 2592, 3012, 3013, 3034, 3033
2350, 2572, 2573, 2594, 2593, 3013, 3014, 3035, 3034
2351, 2573, 2574, 2595, 2594, 3014, 3015, 3036, 3035
2352, 2574, 2575, 2596, 2595, 3015, 3016, 3037, 3036
2353, 2575, 2576, 2597, 2596, 3016, 3017, 3038, 3037
2354, 2576, 2577, 2598, 2597, 3017, 3018, 3039, 3038
2355, 2577, 2578, 2599, 2598, 3018, 3019, 3040, 3039
2356, 2578, 2579, 2600, 2599, 3019, 3020, 3041, 3040
2357, 2579, 2580, 2601, 2600, 3020, 3021, 3042, 3041
2358, 2580, 2581, 2602, 2601, 3021, 3022, 3043, 3042
2359, 2581, 2582, 2603, 2602, 3022, 3023, 3044, 3043
2360, 2582, 2583, 2604, 2603, 3023, 3024, 3045, 3044
2361, 2584, 2585, 2606, 2605, 3025, 3026, 3047, 3046
2362, 2585, 2586, 2607, 2606, 3026, 3027, 3048, 3047
2363, 2586, 2587, 2608, 2607, 3027, 3028, 3049, 3048
2364, 2587, 2588, 2609, 2608, 3028, 3029, 3050, 3049
2365, 2588, 2589, 2610, 2609, 3029, 3030, 3051, 3050
2366, 2589, 2590, 2611, 2610, 3030, 3031, 3052, 3051
2367, 2590, 2591, 2612, 2611, 3031, 3032, 3053, 3052
2368, 2591, 2592, 2613, 2612, 3032, 3033, 3054, 3053
2369, 2592, 2593, 2614, 2613, 3033, 3034, 3055, 3054
2370, 2593, 2594, 2615, 2614, 3034, 3035, 3056, 3055
2371, 2594, 2595, 2616, 2615, 3035, 3036, 3057, 3056
2372, 2595, 2596, 2617, 2616, 3036, 3037, 3058, 3057
2373, 2596, 2597, 2618, 2617, 3037, 3038, 3059, 3058
2374, 2597, 2598, 2619, 2618, 3038, 3039, 3060, 3059
2375, 2598, 2599, 2620, 2619, 3039, 3040, 3061, 3060
2376, 2599, 2600, 2621, 2620, 3040, 3041, 3062, 3061
2377, 2600, 2601, 2622, 2621, 3041, 3042, 3063, 3062
2378, 2601, 2602, 2623, 2622, 3042, 3043, 3064, 3063
2379, 2602, 2603, 2624, 2623, 3043, 3044, 3065, 3064
2380, 2603, 2604, 2625, 2624, 3044, 3045, 3066, 3065
2381, 2605, 2606, 2627, 2626, 3046, 3047, 3068, 3067
2382, 2606, 2607, 2628, 2627, 3047, 3048, 3069, 3068
2383, 2607, 2608, 2629, 2628, 3048, 3049, 3070, 3069
2384, 2608, 2609, 2630, 2629, 3049, 3050, 3071, 3070
2385, 2609, 2610, 2631, 2630, 3050, 3051, 3072, 3071
2386, 2610, 2611, 2632, 2631, 3051, 3052, 3073, 3072
2387, 2611, 2612, 2633, 2632, 3052, 3053, 3074, 3073
2388, 2612, 2613, 2634, 2633, 3053, 3054, 3075, 3074
2389, 2613, 2614, 2635, 2634, 3054, 3055, 3076, 3075
2390, 2614, 2615, 2636, 2635, 3055, 3056, 3077, 3076
2391, 2615, 2616, 2637, 2636, 3056, 3057, 3078, 3077
2392, 2616, 2617, 2638, 2637, 3057, 3058, 3079, 3078
2393, 2617, 2618, 2639, 2638, 3058, 3059, 3080, 3079
2394, 2618, 2619, 2640, 2639, 3059, 3060, 3081, 3080
2395, 2619, 2620, 2641, 2640, 3060, 3061, 3082, 3081
2396, 2620, 2621, 2642, 2641, 3061, 3062, 3083, 3082
2397, 2621, 2622, 2643, 2642, 3062, 3063, 3084, 3083
2398, 2622, 2623, 2644, 2643, 3063, 3064, 3085, 3084
2399, 2623, 2624, 2645, 2644, 3064, 3065, 3086, 3085
2400, 2624, 2625, 2646, 2645, 3065, 3066, 3087, 3086
2401, 2647, 2648, 2669, 2668, 3088, 3089, 3110, 3109
2402, 2648, 2649, 2670, 2669, 3089, 3090, 3111, 3110
2403, 2649, 2650, 2671, 2670, 3090, 3091, 3112, 3111
2404, 2650, 2651, 2672, 2671, 3091, 3092, 3113, 3112
2405, 2651, 2652, 2673, 2672, 3092, 3093, 3114, 3113
2406, 2652, 2653, 2674, 2673, 3093, 3094, 3115, 3114
2407, 2653, 2654, 2675, 2674, 3094, 3095, 3116, 3115
2408, 2654, 2655, 2676, 2675, 3095, 3096, 3117, 3116
2409, 2655, 2656, 2677, 2676, 3096, 3097, 3118, 3117
2410, 2656, 2657, 2678, 2677, 3097, 3098, 3119, 3118
2411, 2657, 2658, 2679, 2678, 3098, 3099, 3120, 3119
2412, 2658, 2659, 2680, 2679, 3099, 3100, 3121, 3120
2413, 2659, 2660, 2681, 2680, 3100, 3101, 3122, 3121
2414, 2660, 2661, 2682, 2681, 3101, 3102, 3123, 3122
2415, 2661, 2662, 2683, 2682, 3102, 3103, 3124, 3123
2416, 2662, 2663, 2684, 2683, 3103, 3104, 3125, 3124
2417, 2663, 2664, 2685, 2684, 3104, 3105, 3126, 3125
2418, 2664, 2665, 2686, 2685, 3105, 3106, 3127, 3126
2419, 2665, 2666, 2687, 2686, 3106, 3107, 3128, 3127
2420, 2666, 2667, 2688, 2687, 3107, 3108, 3129, 3128
2421, 2668, 2669, 2690, 2689, 3109, 3110, 3131, 3130
2422, 2669, 2670, 2691, 2690, 3110, 3111, 3132, 3131
2423, 2670, 2671, 2692, 2691, 3111, 3112, 3133, 3132
2424, 2671, 2672, 2693, 2692, 3112, 3113, 3134, 3133
2425, 2672, 2673, 2694, 2693, 3113, 3114, 3135, 3134
2426, 2673, 2674, 2695, 2694, 3114, 3115, 3136, 3135
2427, 2674, 2675, 2696, 2695, 3115, 3116, 3137, 3136
2428, 2675, 2676, 2697, 2696, 3116, 3117, 3138, 3137
2429, 2676, 2677, 2698, 2697, 3117, 3118, 3139, 3138
2430, 2677, 2678, 2699, 2698, 3118, 3119, 3140, 3139
2431, 2678, 2679, 2700, 2699, 3119, 3120, 3141, 3140
2432, 2679, 2680, 2701, 2700, 3120, 3121, 3142, 3141
2433, 2680, 2681, 2702, 2701, 3121, 3122, 3143, 3142
2434, 2681, 2682, 2703, 2702, 3122, 3123, 3144, 3143
2435, 2682, 2683, 2704, 2703, 3123, 3124, 3145, 3144
2436, 2683, 2684, 2705, 2704, 3124, 3125, 3146, 3145
2437, 2684, 2685, 2706, 2705, 3125, 3126, 3147, 3146
2438, 2685, 2686, 2707, 2706, 3126, 3127, 3148, 3147
2439, 2686, 2687, 2708, 2707, 3127, 3128, 3149, 3148
2440, 2687, 2688, 2709, 2708, 3128, 3129, 3150, 3149
2441, 2689, 2690, 2711, 2710, 3130, 3131, 3152, 3151
2442, 2690, 2691, 2712, 2711, 3131, 3132, 3153, 3152
2443, 2691, 2692, 2713, 2712, 3132, 3133, 3154, 3153
2444, 2692, 2693, 2714, 2713, 3133, 3134, 3155, 3154
2445, 2693, 2694, 2715, 2714, 3134, 3135, 3156, 3155
2446, 2694, 2695, 2716, 2715, 3135, 3136, 3157, 3156
2447, 2695, 2696, 2717, 2716, 3136, 3137, 3158, 3157
2448, 2696, 2697, 2718, 2717, 3137, 3138, 3159, 3158
2449, 2697, 2698, 2719, 2718, 3138, 3139, 3160, 3159
2450, 2698, 2699, 2720, 2719, 3139, 3140, 3161, 3160
2451, 2699, 2700, 2721, 2720, 3140, 3141, 3162, 3161
2452, 2700, 2701, 2722, 2721, 3141, 3142, 3163, 3162
2453, 2701, 2702, 2723, 2722, 3142, 3143, 3164, 3163
2454, 2702, 2703, 2724, 2723, 3143, 3144, 3165, 3164
2455, 2703, 2704, 2725, 2724, 3144, 3145, 3166, 3165
2456, 2704, 2705, 2726, 2725, 3145, 3146, 3167, 3166
2457, 2705, 2706, 2727, 2726, 3146, 3147, 3168, 3167
2458, 2706, 2707, 2728, 2727, 3147, 3148, 3169, 3168
2459, 2707, 2708, 2729, 2728, 3148, 3149, 3170, 3169
2460, 2708, 2709, 2730, 2729, 3149, 3150, 3171, 3170
2461, 2710, 2711, 2732, 2731, 3151, 3152, 3173, 3172
2462, 2711, 2712, 2733, 2732, 3152, 3153, 3174, 3173
2463, 2712, 2713, 2734, 2733, 3153, 3154, 3175, 3174
2464, 2713, 2714, 2735, 2734, 3154, 3155, 3176, 3175
2465, 2714, 2715, 2736, 2735, 3155, 3156, 3177, 3176
2466, 2715, 2716, 2737, 2736, 3156, 3157, 3178, 3177
2467, 2716, 2717, 2738, 2737, 3157, 3158, 3179, 3178
2468, 2717, 2718, 2739, 2738, 3158, 3159, 3180, 3179
2469, 2718, 2719, 2740, 2739, 3159, 3160, 3181, 3180
2470, 2719, 2720, 2741, 2740, 3160, 3161, 3182, 3181
2471, 2720, 2721, 2742, 2741, 3161, 3162, 3183, 3182
2472, 2721, 2722, 2743, 2742, 3162, 3163, 3184, 3183
2473, 2722, 2723, 2744, 2743, 3163, 3164, 3185, 3184
2474, 2723, 2724, 2745, 2744, 3164, 3165, 3186, 3185
2475, 2724, 2725, 2746, 2745, 3165, 3166, 3187, 3186
2476, 2725, 2726, 2747, 2746, 3166, 3167, 3188, 3187
2477, 2726, 2727, 2748, 2747, 3167, 3168, 3189, 3188
2478, 2727, 2728, 2749, 2748, 3168, 3169, 3190, 3189
2479, 2728, 2729, 2750, 2749, 3169, 3170, 3191, 3190
2480, 2729, 2730, 2751, 2750, 3170, 3171, 3192, 3191
2481, 2731, 2732, 2753, 2752, 3172, 3173, 3194, 3193
2482, 2732, 2733, 2754, 2753, 3173, 3174, 3195, 3194
2483, 2733, 2734, 2755, 2754, 3174, 3175, 3196, 3195
2484, 2734, 2735, 2756, 2755, 3175, 3176, 3197, 3196
2485, 2735, 2736, 2757, 2756, 3176, 3177, 3198, 3197
2486, 2736, 2737, 2758, 2757, 3177, 3178, 3199, 3198
2487, 2737, 2738, 2759, 2758, 3178, 3179, 3200, 3199
2488, 2738, 2739, 2760, 2759, 3179, 3180, 3201, 3200
2489, 2739, 2740, 2761, 2760, 3180, 3181, 3202, 3201
2490, 2740, 2741, 2762, 2761, 3181, 3182, 3203, 3202
2491, 2741, 2742, 2763, 2762, 3182, 3183, 3204, 3203
2492, 2742, 2743, 2764, 2763, 3183, 3184, 3205, 3204
2493, 2743, 2744, 2765, 2764, 3184, 3185, 3206, 3205
2494, 2744, 2745, 2766, 2765, 3185, 3186, 3207, 3206
2495, 2745, 2746, 2767, 2766, 3186, 3187, 3208, 3207
2496, 2746, 2747, 2768, 2767, 3187, 3188, 3209, 3208
2497, 2747, 2748, 2769, 2768, 3188, 3189, 3210, 3209
2498, 2748, 2749, 2770, 2769, 3189, 3190, 3211, 3210
2499, 2749, 2750, 2771, 2770, 3190, 3191, 3212, 3211
2500, 2750, 2751, 2772, 2771, 3191, 3192, 3213, 3212
2501, 2752, 2753, 2774, 2773, 3193, 3194, 3215, 3214
2502, 2753, 2754, 2775, 2774, 3194, 3195, 3216, 3215
2503, 2754, 2755, 2776, 2775, 3195, 3196, 3217, 3216
2504, 2755, 2756, 2777, 2776, 3196, 3197, 3218, 3217
2505, 2756, 2757, 2778, 2777, 3197, 3198, 3219, 3218
2506, 2757, 2758, 2779, 2778, 3198, 3199, 3220, 3219
2507, 2758, 2759, 2780, 2779, 3199, 3200, 3221, 3220
2508, 2759, 2760, 2781, 2780, 3200, 3201, 3222, 3221
2509, 2760, 2761, 2782, 2781, 3201, 3202, 3223, 3222
2510, 2761, 2762, 2783, 2782, 3202, 3203, 3224, 3223
2511, 2762, 2763, 2784, 2783, 3203, 3204, 3225, 3224
2512, 2763, 2764, 2785, 2784, 3204, 3205, 3226, 3225
2513, 2764, 2765, 2786, 2785, 3205, 3206, 3227, 3226
2514, 2765, 2766, 2787, 2786, 3206, 3207, 3228, 3227
2515, 2766, 2767, 2788, 2787, 3207, 3208, 3229, 3228
2516, 2767, 2768, 2789, 2788, 3208, 3209, 3230, 3229
2517, 2768, 2769, 2790, 2789, 3209, 3210, 3231, 3230
2518, 2769, 2770, 2791, 2790, 3210, 3211, 3232, 3231
2519, 2770, 2771, 2792, 2791, 3211, 3212, 3233, 3232
2520, 2771, 2772, 2793, 2792, 3212, 3213, 3234, 3233
2521, 2773, 2774, 2795, 2794, 3214, 3215, 3236, 3235
2522, 2774, 2775, 2796, 2795, 3215, 3216, 3237, 3236
2523, 2775, 2776, 2797, 2796, 3216, 3217, 3238, 3237
2524, 2776, 2777, 2798, 2797, 3217, 3218, 3239, 3238
2525, 2777, 2778, 2799, 2798, 3218, 3219, 3240, 3239
2526, 2778, 2779, 2800, 2799, 3219, 3220, 3241, 3240
2527, 2779, 2780, 2801, 2800, 3220, 3221, 3242, 3241
2528, 2780, 2781, 2802, 2801, 3221, 3222, 3243, 3242
2529, 2781, 2782, 2803, 2802, 3222, 3223, 3244, 3243
2530, 2782, 2783, 2804, 2803, 3223, 3224, 3245, 3244
2531, 2783, 2784, 2805, 2804, 3224, 3225, 3246, 3245
2532, 2784, 2785, 2806, 2805, 3225, 3226, 3247, 3246
2533, 2785, 2786, 2807, 2806, 3226, 3227, 3248, 3247
2534, 2786, 2787, 2808, 2807, 3227, 3228, 3249, 3248
2535, 2787, 2788, 2809, 2808, 3228, 3229, 3250, 3249
2536, 2788, 2789, 2810, 2809, 3229, 3230, 3251, 3250
2537, 2789, 2790, 2811, 2810, 3230, 3231, 3252, 3251
2538, 2790, 2791, 2812, 2811, 3231, 3232, 3253, 3252
2539, 2791, 2792, 2813, 2812, 3232, 3233, 3254, 3253
2540, 2792, 2793, 2814, 2813, 3233, 3234, 3255, 3254
2541, 2794, 2795, 2816, 2815, 3235, 3236, 3257, 3256
2542, 2795, 2796, 2817, 2816, 3236, 3237, 3258, 3257
2543, 2796, 2797, 2818, 2817, 3237, 3238, 3259, 3258
2544, 2797, 2798, 2819, 2818, 3238, 3239, 3260, 3259
2545, 2798, 2799, 2820, 2819, 3239, 3240, 3261, 3260
2546, 2799, 2800, 2821, 2820, 3240, 3241, 3262, 3261
2547, 2800, 2801, 2822, 2821, 3241, 3242, 3263, 3262
2548, 2801, 2802, 2823, 2822, 3242, 3243, 3264, 3263
2549, 2802, 2803, 2824, 2823, 3243, 3244, 3265, 3264
2550, 2803, 2804, 2825, 2824, 3244, 3245, 3266, 3265
2551, 2804, 2805, 2826, 2825, 3245, 3246, 3267, 3266
2552, 2805, 2806, 2827, 2826, 3246, 3247, 3268, 3267
2553, 2806, 2807, 2828, 2827, 3247, 3248, 3269, 3268
2554, 2807, 2808, 2829, 2828, 3248, 3249, 3270, 3269
2555, 2808, 2809, 2830, 2829, 3249, 3250, 3271, 3270
2556, 2809, 2810, 2831, 2830, 3250, 3251, 3272, 3271
2557, 2810, 2811, 2832, 2831, 3251, 3252, 3273, 3272
2558, 2811, 2812, 2833, 2832, 3252, 3253, 3274, 3273
2559, 2812, 2813, 2834, 2833, 3253, 3254, 3275, 3274
2560, 2813, 2814, 2835, 2834, 3254, 3255, 3276, 3275
2561, 2815, 2816, 2837, 2836, 3256, 3257, 3278, 3277
2562, 2816, 2817, 2838, 2837, 3257, 3258, 3279, 3278
2563, 2817, 2818, 2839, 2838, 3258, 3259, 3280, 3279
2564, 2818, 2819, 2840, 2839, 3259, 3260, 3281, 3280
2565, 2819, 2820, 2841, 2840, 3260, 3261, 3282, 3281
2566, 2820, 2821, 2842, 2841, 3261, 3262, 3283, 3282
2567, 2821, 2822, 2843, 2842, 3262, 3263, 3284, 3283
2568, 2822, 2823, 2844, 2843, 3263, 3264, 3285, 3284
2569, 2823, 2824, 2845, 2844, 3264, 3265, 3286, 3285
2570, 2824, 2825, 2846, 2845, 3265, 3266, 3287, 3286
2571, 2825, 2826, 2847, 2846, 3266, 3267, 3288, 3287
2572, 2826, 2827, 2848, 2847, 3267, 3268, 3289, 3288
2573, 2827, 2828, 2849, 2848, 3268, 3269, 3290, 3289
2574, 2828, 2829, 2850, 2849, 3269, 3270, 3291, 3290
2575, 2829, 2830, 2851, 2850, 3270, 3271, 3292, 3291
2576, 2830, 2831, 2852, 2851, 3271, 3272, 3293, 3292
2577, 2831, 2832, 2853, 2852, 3272, 3273, 3294, 3293
2578, 2832, 2833, 2854, 2853, 3273, 3274, 3295, 3294
2579, 2833, 2834, 2855, 2854, 3274, 3275, 3296, 3295
2580, 2834, 2835, 2856, 2855, 3275, 3276, 3297, 3296
2581, 2836, 2837, 2858, 2857, 3277, 3278, 3299, 3298
2582, 2837, 2838, 2859, 2858, 3278, 3279, 3300, 3299
2583, 2838, 2839, 2860, 2859, 3279, 3280, 3301, 3300
2584, 2839, 2840, 2861, 2860, 3280, 3281, 3302, 3301
2585, 2840, 2841, 2862, 2861, 3281, 3282, 3303, 3302
2586, 2841, 2842, 2863, 2862, 3282, 3283, 3304, 3303
2587, 2842, 2843, 2864, 2863, 3283, 3284, 3305, 3304
2588, 2843, 2844, 2865, 2864, 3284, 3285, 3306, 3305
2589, 2844, 2845, 2866, 2865, 3285, 3286, 3307, 3306
2590, 2845, 2846, 2867, 2866, 3286, 3287, 3308, 3307
2591, 2846, 2847, 2868, 2867, 3287, 3288, 3309, 3308
2592, 2847, 2848, 2869, 2868, 3288, 3289, 3310, 3309
2593, 2848, 2849, 2870, 2869, 3289, 3290, 3311, 3310
2594, 2849, 2850, 2871, 2870, 3290, 3291, 3312, 3311
2595, 2850, 2851, 2872, 2871, 3291, 3292, 3313, 3312
2596, 2851, 2852, 2873, 2872, 3292, 3293, 3314, 3313
2597, 2852, 2853, 2874, 2873, 3293, 3294, 3315, 3314
2598, 2853, 2854, 2875, 2874, 3294, 3295, 3316, 3315
2599, 2854, 2855, 2876, 2875, 3295, 3296, 3317, 3316
2600, 2855, 2856, 2877, 2876, 3296, 3297, 3318, 3317
2601, 2857, 2858, 2879, 2878, 3298, 3299, 3320, 3319
2602, 2858, 2859, 2880, 2879, 3299, 3300, 3321, 3320
2603, 2859, 2860, 2881, 2880, 3300, 3301, 3322, 3321
2604, 2860, 2861, 2882, 2881, 3301, 3302, 3323, 3322
2605, 2861, 2862, 2883, 2882, 3302, 3303, 3324, 3323
2606, 2862, 2863, 2884, 2883, 3303, 3304, 3325, 3324
2607, 2863, 2864, 2885, 2884, 3304, 3305, 3326, 3325
2608, 2864, 2865, 2886, 2885, 3305, 3306, 3327, 3326
2609, 2865, 2866, 2887, 2886, 3306, 3307, 3328, 3327
2610, 2866, 2867, 2888, 2887, 3307, 3308, 3329, 3328
2611, 2867, 2868, 2889, 2888, 3308, 3309, 3330, 3329
2612, 2868, 2869, 2890, 2889, 3309, 3310, 3331, 3330
2613, 2869, 2870, 2891, 2890, 3310, 3311, 3332, 3331
2614, 2870, 2871, 2892, 2891, 3311, 3312, 3333, 3332
2615, 2871, 2872, 2893, 2892, 3312, 3313, 3334, 3333
2616, 2872, 2873, 2894, 2893, 3313, 3314, 3335, 3334
2617, 2873, 2874, 2895, 2894, 3314, 3315, 3336, 3335
2618, 2874, 2875, 2896, 2895, 3315, 3316, 3337, 3336
2619, 2875, 2876, 2897, 2896, 3316, 3317, 3338, 3337
2620, 2876, 2877, 2898, 2897, 3317, 3318, 3339, 3338
2621, 2878, 2879, 2900, 2899, 3319, 3320, 3341, 3340
2622, 2879, 2880, 2901, 2900, 3320, 3321, 3342, 3341
2623, 2880, 2881, 2902, 2901, 3321, 3322, 3343, 3342
2624, 2881, 2882, 2903, 2902, 3322, 3323, 3344, 3343
2625, 2882, 2883, 2904, 2903, 3323, 3324, 3345, 3344
2626, 2883, 2884, 2905, 2904, 3324, 3325, 3346, 3345
2627, 2884, 2885, 2906, 2905, 3325, 3326, 3347, 3346
2628, 2885, 2886, 2907, 2906, 3326, 3327, 3348, 3347
2629, 2886, 2887, 2908, 2907, 3327, 3328, 3349, 3348
2630, 2887, 2888, 2909, 2908, 3328, 3329, 3350, 3349
2631, 2888, 2889, 2910, 2909, 3329, 3330, 3351, 3350
2632, 2889, 2890, 2911, 2910, 3330, 3331, 3352, 3351
2633, 2890, 2891, 2912, 2911, 3331, 3332, 3353, 3352
2634, 2891, 2892, 2913, 2912, 3332, 3333, 3354, 3353
2635, 2892, 2893, 2914, 2913, 3333, 3334, 3355, 3354
2636, 2893, 2894, 2915, 2914, 3334, 3335, 3356, 3355
2637, 2894, 2895, 2916, 2915, 3335, 3336, 3357, 3356
2638, 2895, 2896, 2917, 2916, 3336, 3337, 3358, 3357
2639, 2896, 2897, 2918, 2917, 3337, 3338, 3359, 3358
2640, 2897, 2898, 2919, 2918, 3338, 3339, 3360, 3359
2641, 2899, 2900, 2921, 2920, 3340, 3341, 3362, 3361
2642, 2900, 2901, 2922, 2921, 3341, 3342, 3363, 3362
2643, 2901, 2902, 2923, 2922, 3342, 3343, 3364, 3363
2644, 2902, 2903, 2924, 2923, 3343, 3344, 3365, 3364
2645, 2903, 2904, 2925, 2924, 3344, 3345, 3366, 3365
2646, 2904, 2905, 2926, 2925, 3345, 3346, 3367, 3366
2647, 2905, 2906, 2927, 2926, 3346, 3347, 3368, 3367
2648, 2906, 2907, 2928, 2927, 3347, 3348, 3369, 3368
2649, 2907, 2908, 2929, 2928, 3348, 3349, 3370, 3369
2650, 2908, 2909, 2930, 2929, 3349, 3350, 3371, 3370
2651, 2909, 2910, 2931, 2930, 3350, 3351, 3372, 3371
2652, 2910, 2911, 2932, 2931, 3351, 3352, 3373, 3372
2653, 2911, 2912, 2933, 2932, 3352, 3353, 3374, 3373
2654, 2912, 2913, 2934, 2933, 3353, 3354, 3375, 3374
2655, 2913, 2914, 2935, 2934, 3354, 3355, 3376, 3375
2656, 2914, 2915, 2936, 2935, 3355, 3356, 3377, 3376
2657, 2915, 2916, 2937, 2936, 3356, 3357, 3378, 3377
2658, 2916, 2917, 2938, 2937, 3357, 3358, 3379, 3378
2659, 2917, 2918, 2939, 2938, 3358, 3359, 3380, 3379
2660, 2918, 2919, 2940, 2939, 3359, 3360, 3381, 3380
2661, 2920, 2921, 2942, 2941, 3361, 3362, 3383, 3382
2662, 2921, 2922, 2943, 2942, 3362, 3363, 3384, 3383
2663, 2922, 2923, 2944, 2943, 3363, 3364, 3385, 3384
2664, 2923, 2924, 2945, 2944, 3364, 3365, 3386, 3385
2665, 2924, 2925, 2946, 2945, 3365, 3366, 3387, 3386
2666, 2925, 2926, 2947, 2946, 3366, 3367, 3388, 3387
2667, 2926, 2927, 2948, 2947, 3367, 3368, 3389, 3388
2668, 2927, 2928, 2949, 2948, 3368, 3369, 3390, 3389
2669, 2928, 2929, 2950, 2949, 3369, 3370, 3391, 3390
2670, 2929, 2930, 2951, 2950, 3370, 3371, 3392, 3391
2671, 2930, 2931, 2952, 2951, 3371, 3372, 3393, 3392
2672, 2931, 2932, 2953, 2952, 3372, 3373, 3394, 3393
2673, 2932, 2933, 2954, 2953, 3373, 3374, 3395, 3394
2674, 2933, 2934, 2955, 2954, 3374, 3375, 3396, 3395
2675, 2934, 2935, 2956, 2955, 3375, 3376, 3397, 3396
2676, 2935, 2936, 2957, 2956, 3376, 3377, 3398, 3397
2677, 2936, 2937, 2958, 2957, 3377, 3378, 3399, 3398
2678, 2937, 2938, 2959, 2958, 3378, 3379, 3400, 3399
2679, 2938, 2939, 2960, 2959, 3379, 3380, 3401, 3400
2680, 2939, 2940, 2961, 2960, 3380, 3381, 3402, 3401
2681, 2941, 2942, 2963, 2962, 3382, 3383, 3404, 3403
2682, 2942, 2943, 2964, 2963, 3383, 3384, 3405, 3404
2683, 2943, 2944, 2965, 2964, 3384, 3385, 3406, 3405
2684, 2944, 2945, 2966, 2965, 3385, 3386, 3407, 3406
2685, 2945, 2946, 2967, 2966, 3386, 3387, 3408, 3407
2686, 2946, 2947, 2968, 2967, 3387, 3388, 3409, 3408
2687, 2947, 2948, 2969, 2968, 3388, 3389, 3410, 3409
2688, 2948, 2949, 2970, 2969, 3389, 3390, 3411, 3410
2689, 2949, 2950, 2971, 2970, 3390, 3391, 3412, 3411
2690, 2950, 2951, 2972, 2971, 3391, 3392, 3413, 3412
2691, 2951, 2952, 2973, 2972, 3392, 3393, 3414, 3413
2692, 2952, 2953, 2974, 2973, 3393, 3394, 3415, 3414
2693, 2953, 2954, 2975, 2974, 3394, 3395, 3416, 3415
2694, 2954, 2955, 2976, 2975, 3395, 3396, 3417, 3416
2695, 2955, 2956, 2977, 2976, 3396, 3397, 3418, 3417
2696, 2956, 2957, 2978, 2977, 3397, 3398, 3419, 3418
2697, 2957, 2958, 2979, 2978, 3398, 3399, 3420, 3419
2698, 2958, 2959, 2980, 2979, 3399, 3400, 3421, 3420
2699, 2959, 2960, 2981, 2980, 3400, 3401, 3422, 3421
2700, 2960, 2961, 2982, 2981, 3401, 3402, 3423, 3422
2701, 2962, 2963, 2984, 2983, 3403, 3404, 3425, 3424
2702, 2963, 2964, 2985, 2984, 3404, 3405, 3426, 3425
2703, 2964, 2965, 2986, 2985, 3405, 3406, 3427, 3426
2704, 2965, 2966, 2987, 2986, 3406, 3407, 3428, 3427
2705, 2966, 2967, 2988, 2987, 3407, 3408, 3429, 3428
2706, 2967, 2968, 2989, 2988, 3408, 3409, 3430, 3429
2707, 2968, 2969, 2990, 2989, 3409, 3410, 3431, 3430
2708, 2969, 2970, 2991, 2990, 3410, 3411, 3432, 3431
2709, 2970, 2971, 2992, 2991, 3411, 3412, 3433, 3432
2710, 2971, 2972, 2993, 2992, 3412, 3413, 3434, 3433
2711, 2972, 2973, 2994, 2993, 3413, 3414, 3435, 3434
2712, 2973, 2974, 2995, 2994, 3414, 3415, 3436, 3435
2713, 2974, 2975, 2996, 2995, 3415, 3416, 3437, 3436
2714, 2975, 2976, 2997, 2996, 3416, 3417, 3438, 3437
2715, 2976, 2977, 2998, 2997, 3417, 3418, 3439, 3438
2716, 2977, 2978, 2999, 2998, 3418, 3419, 3440, 3439
2717, 2978, 2979, 3000, 2999, 3419, 3420, 3441, 3440
2718, 2979, 2980, 3001, 3000, 3420, 3421, 3442, 3441
2719, 2980, 2981, 3002, 3001, 3421, 3422, 3443, 3442
2720, 2981, 2982, 3003, 3002, 3422, 3423, 3444, 3443
2721, 2983, 2984, 3005, 3004, 3424, 3425, 3446, 3445
2722, 2984, 2985, 3006, 3005, 3425, 3426, 3447, 3446
2723, 2985, 2986, 3007, 3006, 3426, 3427, 3448, 3447
2724, 2986, 2987, 3008, 3007, 3427, 3428, 3449, 3448
2725, 2987, 2988, 3009, 3008, 3428, 3429, 3450, 3449
2726, 2988, 2989, 3010, 3009, 3429, 3430, 3451, 3450
2727, 2989, 2990, 3011, 3010, 3430, 3431, 3452, 3451
2728, 2990, 2991, 3012, 3011, 3431, 3432, 3453, 3452
2729, 2991, 2992, 3013, 3012, 3432, 3433, 3454, 3453
2730, 2992, 2993, 3014, 3013, 3433, 3434, 3455, 3454
2731, 2993, 2994, 3015, 3014, 3434, 3435, 3456, 3455
2732, 2994, 2995, 3016, 3015, 3435, 3436, 3457, 3456
2733, 2995, 2996, 3017, 3016, 3436, 3437, 3458, 3457
2734, 2996, 2997, 3018, 3017, 3437, 3438, 3459, 3458
2735, 2997, 2998, 3019, 3018, 3438, 3439, 3460, 3459
2736, 2998, 2999, 3020, 3019, 3439, 3440, 3461, 3460
2737, 2999, 3000, 3021, 3020, 3440, 3441, 3462, 3461
2738, 3000, 3001, 3022, 3021, 3441, 3442, 3463, 3462
2739, 3001, 3002, 3023, 3022, 3442, 3443, 3464, 3463
2740, 3002, 3003, 3024, 3023, 3443, 3444, 3465, 3464
2741, 3004, 3005, 3026, 3025, 3445, 3446, 3467, 3466
2742, 3005, 3006, 3027, 3026, 3446, 3447, 3468, 3467
2743, 3006, 3007, 3028, 3027, 3447, 3448, 3469, 3468
2744, 3007, 3008, 3029, 3028, 3448, 3449, 3470, 3469
2745, 3008, 3009, 3030, 3029, 3449, 3450, 3471, 3470
2746, 3009, 3010, 3031, 3030, 3450, 3451, 3472, 3471
2747, 3010, 3011, 3032, 3031, 3451, 3452, 3473, 3472
2748, 3011, 3012, 3033, 3032, 3452, 3453, 3474, 3473
2749, 3012, 3013, 3034, 3033, 3453, 3454, 3475, 3474
2750, 3013, 3014, 3035, 3034, 3454, 3455, 3476, 3475
2751, 3014, 3015, 3036, 3035, 3455, 3456, 3477, 3476
2752, 3015, 3016, 3037, 3036, 3456, 3457, 3478, 3477
2753, 3016, 3017, 3038, 3037, 3457, 3458, 3479, 3478
2754, 3017, 3018, 3039, 3038, 3458, 3459, 3480, 3479
2755, 3018, 3019, 3040, 3039, 3459, 3460, 3481, 3480
2756, 3019, 3020, 3041, 3040, 3460, 3461, 3482, 3481
2757, 3020, 3021, 3042, 3041, 3461, 3462, 3483, 3482
2758, 3021, 3022, 3043, 3042, 3462, 3463, 3484, 3483
2759, 3022, 3023, 3044, 3043, 3463, 3464, 3485, 3484
2760, 3023, 3024, 3045, 3044, 3464, 3465, 3486, 3485
2761, 3025, 3026, 3047, 3046, 3466, 3467, 3488, 3487
2762, 3026, 3027, 3048, 3047, 3467, 3468, 3489, 3488
2763, 3027, 3028, 3049, 3048, 3468, 3469, 3490, 3489
2764, 3028, 3029, 3050, 3049, 3469, 3470, 3491, 3490
2765, 3029, 3030, 3051, 3050, 3470, 3471, 3492, 3491
2766, 3030, 3031, 3052, 3051, 3471, 3472, 3493, 3492
2767, 3031, 3032, 3053, 3052, 3472, 3473, 3494, 3493
2768, 3032, 3033, 3054, 3053, 3473, 3474, 3495, 3494
2769, 3033, 3034, 3055, 3054, 3474, 3475, 3496, 3495
2770, 3034, 3035, 3056, 3055, 3475, 3476, 3497, 3496
2771, 3035, 3036, 3057, 3056, 3476, 3477, 3498, 3497
2772, 3036, 3037, 3058, 3057, 3477, 3478, 3499, 3498
2773, 3037, 3038, 3059, 3058, 3478, 3479, 3500, 3499
2774, 3038, 3039, 3060, 3059, 3479, 3480, 3501, 3500
2775, 3039, 3040, 3061, 3060, 3480, 3481, 3502, 3501
2776, 3040, 3041, 3062, 3061, 3481, 3482, 3503, 3502
2777, 3041, 3042, 3063, 3062, 3482, 3483, 3504, 3503
2778, 3042, 3043, 3064, 3063, 3483, 3484, 3505, 3504
2779, 3043, 3044, 3065, 3064, 3484, 3485, 3506, 3505
2780, 3044, 3045, 3066, 3065, 3485, 3486, 3507, 3506
2781, 3046, 3047, 3068, 3067, 3487, 3488, 3509, 3508
2782, 3047, 3048, 3069, 3068, 3488, 3489, 3510, 3509
2783, 3048, 3049, 3070, 3069, 3489, 3490, 3511, 3510
2784, 3049, 3050, 3071, 3070, 3490, 3491, 3512, 3511
2785, 3050, 3051, 3072, 3071, 3491, 3492, 3513, 3512
2786, 3051, 3052, 3073, 3072, 3492, 3493, 3514, 3513
2787, 3052, 3053, 3074, 3073, 3493, 3494, 3515, 3514
2788, 3053, 3054, 3075, 3074, 3494, 3495, 3516, 3515
2789, 3054, 3055, 3076, 3075, 3495, 3496, 3517, 3516
2790, 3055, 3056, 3077, 3076, 3496, 3497, 3518, 3517
2791, 3056, 3057, 3078, 3077, 3497, 3498, 3519, 3518
2792, 3057, 3058, 3079, 3078, 3498, 3499, 3520, 3519
2793, 3058, 3059, 3080, 3079, 3499, 3500, 3521, 3520
2794, 3059, 3060, 3081, 3080, 3500, 3501, 3522, 3521
2795, 3060, 3061, 3082, 3081, 3501, 3502, 3523, 3522
2796, 3061, 3062, 3083, 3082, 3502, 3503, 3524, 3523
2797, 3062, 3063, 3084, 3083, 3503, 3504, 3525, 3524
2798, 3063, 3064, 3085, 3084, 3504, 3505, 3526, 3525
2799, 3064, 3065, 3086, 3085, 3505, 3506, 3527, 3526
2800, 3065, 3066, 3087, 3086, 3506, 3507, 3528, 3527
2801, 3088, 3089, 3110, 3109, 3529, 3530, 3551, 3550
2802, 3089, 3090, 3111, 3110, 3530, 3531, 3552, 3551
2803, 3090, 3091, 3112, 3111, 3531, 3532, 3553, 3552
2804, 3091, 3092, 3113, 3112, 3532, 3533, 3554, 3553
2805, 3092, 3093, 3114, 3113, 3533, 3534, 3555, 3554
2806, 3093, 3094, 3115, 3114, 3534, 3535, 3556, 3555
2807, 3094, 3095, 3116, 3115, 3535, 3536, 3557, 3556
2808, 3095, 3096, 3117, 3116, 3536, 3537, 3558, 3557
2809, 3096, 3097, 3118, 3117, 3537, 3538, 3559, 3558
2810, 3097, 3098, 3119, 3118, 3538, 3539, 3560, 3559
2811, 3098, 3099, 3120, 3119, 3539, 3540, 3561, 3560
2812, 3099, 3100, 3121, 3120, 3540, 3541, 3562, 3561
2813, 3100, 3101, 3122, 3121, 3541, 3542, 3563, 3562
2814, 3101, 3102, 3123, 3122, 3542, 3543, 3564, 3563
2815, 3102, 3103, 3124, 3123, 3543, 3544, 3565, 3564
2816, 3103, 3104, 3125, 3124, 3544, 3545, 3566, 3565
2817, 3104, 3105, 3126, 3125, 3545, 3546, 3567, 3566
2818, 3105, 3106, 3127, 3126, 3546, 3547, 3568, 3567
2819, 3106, 3107, 3128, 3127, 3547, 3548, 3569, 3568
2820, 3107, 3108, 3129, 3128, 3548, 3549, 3570, 3569
2821, 3109, 3110, 3131, 3130, 3550, 3551, 3572, 3571
2822, 3110, 3111, 3132, 3131, 3551, 3552, 3573, 3572
2823, 3111, 3112, 3133, 3132, 3552, 3553, 3574, 3573
2824, 3112, 3113, 3134, 3133, 3553, 3554, 3575, 3574
2825, 3113, 3114, 3135, 3134, 3554, 3555, 3576, 3575
2826, 3114, 3115, 3136, 3135, 3555, 3556, 3577, 3576
2827, 3115, 3116, 3137, 3136, 3556, 3557, 3578, 3577
2828, 3116, 3117, 3138, 3137, 3557, 3558, 3579, 3578
2829, 3117, 3118, 3139, 3138, 3558, 3559, 3580, 3579
2830, 3118, 3119, 3140, 3139, 3559, 3560, 3581, 3580
2831, 3119, 3120, 3141, 3140, 3560, 3561, 3582, 3581
2832, 3120, 3121, 3142, 3141, 3561, 3562, 3583, 3582
2833, 3121, 3122, 3143, 3142, 3562, 3563, 3584, 3583
2834, 3122, 3123, 3144, 3143, 3563, 3564, 3585, 3584
2835, 3123, 3124, 3145, 3144, 3564, 3565, 3586, 3585
2836, 3124, 3125, 3146, 3145, 3565, 3566, 3587, 3586
2837, 3125, 3126, 3147, 3146, 3566, 3567, 3588, 3587
2838, 3126, 3127, 3148, 3147, 3567, 3568, 3589, 3588
2839, 3127, 3128, 3149, 3148, 3568, 3569, 3590, 3589
2840, 3128, 3129, 3150, 3149, 3569, 3570, 3591, 3590
2841, 3130, 3131, 3152, 3151, 3571, 3572, 3593, 3592
2842, 3131, 3132, 3153, 3152, 3572, 3573, 3594, 3593
2843, 3132, 3133, 3154, 3153, 3573, 3574, 3595, 3594
2844, 3133, 3134, 3155, 3154, 3574, 3575, 3596, 3595
2845, 3134, 3135, 3156, 3155, 3575, 3576, 3597, 3596
2846, 3135, 3136, 3157, 3156, 3576, 3577, 3598, 3597
2847, 3136, 3137, 3158, 3157, 3577, 3578, 3599, 3598
2848, 3137, 3138, 3159, 3158, 3578, 3579, 3600, 3599
2849, 3138, 3139, 3160, 3159, 3579, 3580, 3601, 3600
2850, 3139, 3140, 3161, 3160, 3580, 3581, 3602, 3601
2851, 3140, 3141, 3162, 3161, 3581, 3582, 3603, 3602
2852, 3141, 3142, 3163, 3162, 3582, 3583, 3604, 3603
2853, 3142, 3143, 3164, 3163, 3583, 3584, 3605, 3604
2854, 3143, 3144, 3165, 3164, 3584, 3585, 3606, 3605
2855, 3144, 3145, 3166, 3165, 3585, 3586, 3607, 3606
2856, 3145, 3146, 3167, 3166, 3586, 3587, 3608, 3607
2857, 3146, 3147, 3168, 3167, 3587, 3588, 3609, 3608
2858, 3147, 3148, 3169, 3168, 3588, 3589, 3610, 3609
2859, 3148, 3149, 3170, 3169, 3589, 3590, 3611, 3610
2860, 3149, 3150, 3171, 3170, 3590, 3591, 3612, 3611
2861, 3151, 3152, 3173, 3172, 3592, 3593, 3614, 3613
2862, 3152, 3153, 3174, 3173, 3593, 3594, 3615, 3614
2863, 3153, 3154, 3175, 3174, 3594, 3595, 3616, 3615
2864, 3154, 3155, 3176, 3175, 3595, 3596, 3617, 3616
2865, 3155, 3156, 3177, 3176, 3596, 3597, 3618, 3617
2866, 3156, 3157, 3178, 3177, 3597, 3598, 3619, 3618
2867, 3157, 3158, 3179, 3178, 3598, 3599, 3620, 3619
2868, 3158, 3159, 3180, 3179, 3599, 3600, 3621, 3620
2869, 3159, 3160, 3181, 3180, 3600, 3601, 3622, 3621
2870, 3160, 3161, 3182, 3181, 3601, 3602, 3623, 3622
2871, 3161, 3162, 3183, 3182, 3602, 3603, 3624, 3623
2872, 3162, 3163, 3184, 3183, 3603, 3604, 3625, 3624
2873, 3163, 3164, 3185, 3184, 3604, 3605, 3626, 3625
2874, 3164, 3165, 3186, 3185, 3605, 3606, 3627, 3626
2875, 3165, 3166, 3187, 3186, 3606, 3607, 3628, 3627
2876, 3166, 3167, 3188, 3187, 3607, 3608, 3629, 3628
2877, 3167, 3168, 3189, 3188, 3608, 3609, 3630, 3629
2878, 3168, 3169, 3190, 3189, 3609, 3610, 3631, 3630
2879, 3169, 3170, 3191, 3190, 3610, 3611, 3632, 3631
2880, 3170, 3171, 3192, 3191, 3611, 3612, 3633, 3632
2881, 3172, 3173, 3194, 3193, 3613, 3614, 3635, 3634
2882, 3173, 3174, 3195, 3194, 3614, 3615, 3636, 3635
2883, 3174, 3175, 3196, 3195, 3615, 3616, 3637, 3636
2884, 3175, 3176, 3197, 3196, 3616, 3617, 3638, 3637
2885, 3176, 3177, 3198, 3197, 3617, 3618, 3639, 3638
2886, 3177, 3178, 3199, 3198, 3618, 3619, 3640, 3639
2887, 3178, 3179, 3200, 3199, 3619, 3620, 3641, 3640
2888, 3179, 3180, 3201, 3200, 3620, 3621, 3642, 3641
2889, 3180, 3181, 3202, 3201, 3621, 3622, 3643, 3642
2890, 3181, 3182, 3203, 3202, 3622, 3623, 3644, 3643
2891, 3182, 3183, 3204, 3203, 3623, 3624, 3645, 3644
2892, 3183, 3184, 3205, 3204, 3624, 3625, 3646, 3645
2893, 3184, 3185, 3206, 3205, 3625, 3626, 3647, 3646
2894, 3185, 3186, 3207, 3206, 3626, 3627, 3648, 3647
2895, 3186, 3187, 3208, 3207, 3627, 3628, 3649, 3648
2896, 3187, 3188, 3209, 3208, 3628, 3629, 3650, 3649
2897, 3188, 3189, 3210, 3209, 3629, 3630, 3651, 3650
2898, 3189, 3190, 3211, 3210, 3630, 3631, 3652, 3651
2899, 3190, 3191, 3212, 3211, 3631, 3632, 3653, 3652
2900, 3191, 3192, 3213, 3212, 3632, 3633, 3654, 3653
2901, 3193, 3194, 3215, 3214, 3634, 3635, 3656, 3655
2902, 3194, 3195, 3216, 3215, 3635, 3636, 3657, 3656
2903, 3195, 3196, 3217, 3216, 3636, 3637, 3658, 3657
2904, 3196, 3197, 3218, 3217, 3637, 3638, 3659, 3658
2905, 3197, 3198, 3219, 3218, 3638, 3639, 3660, 3659
2906, 3198, 3199, 3220, 3219, 3639, 3640, 3661, 3660
2907, 3199, 3200, 3221, 3220, 3640, 3641, 3662, 3661
2908, 3200, 3201, 3222, 3221, 3641, 3642, 3663, 3662
2909, 3201, 3202, 3223, 3222, 3642, 3643, 3664, 3663
2910, 3202, 3203, 3224, 3223, 3643, 3644, 3665, 3664
2911, 3203, 3204, 3225, 3224, 3644, 3645, 3666, 3665
2912, 3204, 3205, 3226, 3225, 3645, 3646, 3667, 3666
2913, 3205, 3206, 3227, 3226, 3646, 3647, 3668, 3667
2914, 3206, 3207, 3228, 3227, 3647, 3648, 3669, 3668
2915, 3207, 3208, 3229, 3228, 3648, 3649, 3670, 3669
2916, 3208, 3209, 3230, 3229, 3649, 3650, 3671, 3670
2917, 3209, 3210, 3231, 3230, 3650, 3651, 3672, 3671
2918, 3210, 3211, 3232, 3231, 3651, 3652, 3673, 3672
2919, 3211, 3212, 3233, 3232, 3652, 3653, 3674, 3673
2920, 3212, 3213, 3234, 3233, 3653, 3654, 3675, 3674
2921, 3214, 3215, 3236, 3235, 3655, 3656, 3677, 3676
2922, 3215, 3216, 3237, 3236, 3656, 3657, 3678, 3677
2923, 3216, 3217, 3238, 3237, 3657, 3658, 3679, 3678
2924, 3217, 3218, 3239, 3238, 3658, 3659, 3680, 3679
2925, 3218, 3219, 3240, 3239, 3659, 3660, 3681, 3680
2926, 3219, 3220, 3241, 3240, 3660, 3661, 3682, 3681
2927, 3220, 3221, 3242, 3241, 3661, 3662, 3683, 3682
2928, 3221, 3222, 3243, 3242, 3662, 3663, 3684, 3683
2929, 3222, 3223, 3244, 3243, 3663, 3664, 3685, 3684
2930, 3223, 3224, 3245, 3244, 3664, 3665, 3686, 3685
2931, 3224, 3225, 3246, 3245, 3665, 3666, 3687, 3686
2932, 3225, 3226, 3247, 3246, 3666, 3667, 3688, 3687
2933, 3226, 3227, 3248, 3247, 3667, 3668, 3689, 3688
2934, 3227, 3228, 3249, 3248, 3668, 3669, 3690, 3689
2935, 3228, 3229, 3250, 3249, 3669, 3670, 3691, 3690
2936, 3229, 3230, 3251, 3250, 3670, 3671, 3692, 3691
2937, 3230, 3231, 3252, 3251, 3671, 3672, 3693, 3692
2938, 3231, 3232, 3253, 3252, 3672, 3673, 3694, 3693
2939, 3232, 3233, 3254, 3253, 3673, 3674, 3695, 3694
2940, 3233, 3234, 3255, 3254, 3674, 3675, 3696, 3695
2941, 3235, 3236, 3257, 3256, 3676, 3677, 3698, 3697
2942, 3236, 3237, 3258, 3257, 3677, 3678, 3699, 3698
2943, 3237, 3238, 3259, 3258, 3678, 3679, 3700, 3699
2944, 3238, 3239, 3260, 3259, 3679, 3680, 3701, 3700
2945, 3239, 3240, 3261, 3260, 3680, 3681, 3702, 3701
2946, 3240, 3241, 3262, 3261, 3681, 3682, 3703, 3702
2947, 3241, 3242, 3263, 3262, 3682, 3683, 3704, 3703
2948, 3242, 3243, 3264, 3263, 3683, 3684, 3705, 3704
2949, 3243, 3244, 3265, 3264, 3684, 3685, 3706, 3705
2950, 3244, 3245, 3266, 3265, 3685, 3686, 3707, 3706
2951, 3245, 3246, 3267, 3266, 3686, 3687, 3708, 3707
2952, 3246, 3247, 3268, 3267, 3687, 3688, 3709, 3708
2953, 3247, 3248, 3269, 3268, 3688, 3689, 3710, 3709
2954, 3248, 3249, 3270, 3269, 3689, 3690, 3711, 3710
2955, 3249, 3250, 3271, 3270, 3690, 3691, 3712, 3711
2956, 3250, 3251, 3272, 3271, 3691, 3692, 3713, 3712
2957, 3251, 3252, 3273, 3272, 3692, 3693, 3714, 3713
2958, 3252, 3253, 3274, 3273, 3693, 3694, 3715, 3714
2959, 3253, 3254, 3275, 3274, 3694, 3695, 3716, 3715
2960, 3254, 3255, 3276, 3275, 3695, 3696, 3717, 3716
2961, 3256, 3257, 3278, 3277, 3697, 3698, 3719, 3718
2962, 3257, 3258, 3279, 3278, 3698, 3699, 3720, 3719
2963, 3258, 3259, 3280, 3279, 3699, 3700, 3721, 3720
2964, 3259, 3260, 3281, 3280, 3700, 3701, 3722, 3721
2965, 3260, 3261, 3282, 3281, 3701, 3702, 3723, 3722
2966, 3261, 3262, 3283, 3282, 3702, 3703, 3724, 3723
2967, 3262, 3263, 3284, 3283, 3703, 3704, 3725, 3724
2968, 3263, 3264, 3285, 3284, 3704, 3705, 3726, 3725
2969, 3264, 3265, 3286, 3285, 3705, 3706, 3727, 3726
2970, 3265, 3266, 3287, 3286, 3706, 3707, 3728, 3727
2971, 3266, 3267, 3288, 3287, 3707, 3708, 3729, 3728
2972, 3267, 3268, 3289, 3288, 3708, 3709, 3730, 3729
2973, 3268, 3269, 3290, 3289, 3709, 3710, 3731, 3730
2974, 3269, 3270, 3291, 3290, 3710, 3711, 3732, 3731
2975, 3270, 3271, 3292, 3291, 3711, 3712, 3733, 3732
2976, 3271, 3272, 3293, 3292, 3712, 3713, 3734, 3733
2977, 3272, 3273, 3294, 3293, 3713, 3714, 3735, 3734
2978, 3273, 3274, 3295, 3294, 3714, 3715, 3736, 3735
2979, 3274, 3275, 3296, 3295, 3715, 3716, 3737, 3736
2980, 3275, 3276, 3297, 3296, 3716, 3717, 3738, 3737
2981, 3277, 3278, 3299, 3298, 3718, 3719, 3740, 3739
2982, 3278, 3279, 3300, 3299, 3719, 3720, 3741, 3740
2983, 3279, 3280, 3301, 3300, 3720, 3721, 3742, 3741
2984, 3280, 3281, 3302, 3301, 3721, 3722, 3743, 3742
2985, 3281, 3282, 3303, 3302, 3722, 3723, 3744, 3743
2986, 3282, 3283, 3304, 3303, 3723, 3724, 3745, 3744
2987, 3283, 3284, 3305, 3304, 3724, 3725, 3746, 3745
2988, 3284, 3285, 3306, 3305, 3725, 3726, 3747, 3746
2989, 3285, 3286, 3307, 3306, 3726, 3727, 3748, 3747
2990, 3286, 3287, 3308, 3307, 3727, 3728, 3749, 3748
2991, 3287, 3288, 3309, 3308, 3728, 3729, 3750, 3749
2992, 3288, 3289, 3310, 3309, 3729, 3730, 3751, 3750
2993, 3289, 3290, 3311, 3310, 3730, 3731, 3752, 3751
2994, 3290, 3291, 3312, 3311, 3731, 3732, 3753, 3752
2995, 3291, 3292, 3313, 3312, 3732, 3733, 3754, 3753
2996, 3292, 3293, 3314, 3313, 3733, 3734, 3755, 3754
2997, 3293, 3294, 3315, 3314, 3734, 3735, 3756, 3755
2998, 3294, 3295, 3316, 3315, 3735, 3736, 3757, 3756
2999, 3295, 3296, 3317, 3316, 3736, 3737, 3758, 3757
3000, 3296, 3297, 3318, 3317, 3737, 3738, 3759, 3758
3001, 3298, 3299, 3320, 3319, 3739, 3740, 3761, 3760
3002, 3299, 3300, 3321, 3320, 3740, 3741, 3762, 3761
3003, 3300, 3301, 3322, 3321, 3741, 3742, 3763, 3762
3004, 3301, 3302, 3323, 3322, 3742, 3743, 3764, 3763
3005, 3302, 3303, 3324, 3323, 3743, 3744, 3765, 3764
3006, 3303, 3304, 3325, 3324, 3744, 3745, 3766, 3765
3007, 3304, 3305, 3326, 3325, 3745, 3746, 3767, 3766
3008, 3305, 3306, 3327, 3326, 3746, 3747, 3768, 3767
3009, 3306, 3307, 3328, 3327, 3747, 3748, 3769, 3768
3010, 3307, 3308, 3329, 3328, 3748, 3749, 3770, 3769
3011, 3308, 3309, 3330, 3329, 3749, 3750, 3771, 3770
3012, 3309, 3310, 3331, 3330, 3750, 3751, 3772, 3771
3013, 3310, 3311, 3332, 3331, 3751, 3752, 3773, 3772
3014, 3311, 3312, 3333, 3332, 3752, 3753, 3774, 3773
3015, 3312, 3313, 3334, 3333, 3753, 3754, 3775, 3774
3016, 3313, 3314, 3335, 3334, 3754, 3755, 3776, 3775
3017, 3314, 3315, 3336, 3335, 3755, 3756, 3777, 3776
3018, 3315, 3316, 3337, 3336, 3756, 3757, 3778, 3777
3019, 3316, 3317, 3338, 3337, 3757, 3758, 3779, 3778
3020, 3317, 3318, 3339, 3338, 3758, 3759, 3780, 3779
3021, 3319, 3320, 3341, 3340, 3760, 3761, 3782, 3781
3022, 3320, 3321, 3342, 3341, 3761, 3762, 3783, 3782
3023, 3321, 3322, 3343, 3342, 3762, 3763, 3784, 3783
3024, 3322, 3323, 3344, 3343, 3763, 3764, 3785, 3784
3025, 3323, 3324, 3345, 3344, 3764, 3765, 3786, 3785
3026, 3324, 3325, 3346, 3345, 3765, 3766, 3787, 3786
3027, 3325, 3326, 3347, 3346, 3766, 3767, 3788, 3787
3028, 3326, 3327, 3348, 3347, 3767, 3768, 3789, 3788
3029, 3327, 3328, 3349, 3348, 3768, 3769, 3790, 3789
3030, 3328, 3329, 3350, 3349, 3769, 3770, 3791, 3790
3031, 3329, 3330, 3351, 3350, 3770, 3771, 3792, 3791
3032, 3330, 3331, 3352, 3351, 3771, 3772, 3793, 3792
3033, 3331, 3332, 3353, 3352, 3772, 3773, 3794, 3793
3034, 3332, 3333, 3354, 3353, 3773, 3774, 3795, 3794
3035, 3333, 3334, 3355, 3354, 3774, 3775, 3796, 3795
3036, 3334, 3335, 3356, 3355, 3775, 3776, 3797, 3796
3037, 3335, 3336, 3357, 3356, 3776, 3777, 3798, 3797
3038, 3336, 3337, 3358, 3357, 3777, 3778, 3799, 3798
3039, 3337, 3338, 3359, 3358, 3778, 3779, 3800, 3799
3040, 3338, 3339, 3360, 3359, 3779, 3780, 3801, 3800
3041, 3340, 3341, 3362, 3361, 3781, 3782, 3803, 3802
3042, 3341, 3342, 3363, 3362, 3782, 3783, 3804, 3803
3043, 3342, 3343, 3364, 3363, 3783, 3784, 3805, 3804
3044, 3343, 3344, 3365, 3364, 3784, 3785, 3806, 3805
3045, 3344, 3345, 3366, 3365, 3785, 3786, 3807, 3806
3046, 3345, 3346, 3367, 3366, 3786, 3787, 3808, 3807
3047, 3346, 3347, 3368, 3367, 3787, 3788, 3809, 3808
3048, 3347, 3348, 3369, 3368, 3788, 3789, 3810, 3809
3049, 3348, 3349, 3370, 3369, 3789, 3790, 3811, 3810
3050, 3349, 3350, 3371, 3370, 3790, 3791, 3812, 3811
3051, 3350, 3351, 3372, 3371, 3791, 3792, 3813, 3812
3052, 3351, 3352, 3373, 3372, 3792, 3793, 3814, 3813
3053, 3352, 3353, 3374, 3373, 3793, 3794, 3815, 3814
3054, 3353, 3354, 3375, 3374, 3794, 3795, 3816, 3815
3055, 3354, 3355, 3376, 3375, 3795, 3796, 3817, 3816
3056, 3355, 3356, 3377, 3376, 3796, 3797, 3818, 3817
3057, 3356, 3357, 3378, 3377, 3797, 3798, 3819, 3818
3058, 3357, 3358, 3379, 3378, 3798, 3799, 3820, 3819
3059, 3358, 3359, 3380, 3379, 3799, 3800, 3821, 3820
3060, 3359, 3360, 3381, 3380, 3800, 3801, 3822, 3821
3061, 3361, 3362, 3383, 3382, 3802, 3803, 3824, 3823
3062, 3362, 3363, 3384, 3383, 3803, 3804, 3825, 3824
3063, 3363, 3364, 3385, 3384, 3804, 3805, 3826, 3825
3064, 3364, 3365, 3386, 3385, 3805, 3806, 3827, 3826
3065, 3365, 3366, 3387, 3386, 3806, 3807, 3828, 3827
3066, 3366, 3367, 3388, 3387, 3807, 3808, 3829, 3828
3067, 3367, 3368, 3389, 3388, 3808, 3809, 3830, 3829
3068, 3368, 3369, 3390, 3389, 3809, 3810, 3831, 3830
3069, 3369, 3370, 3391, 3390, 3810, 3811, 3832, 3831
3070, 3370, 3371, 3392, 3391, 3811, 3812, 3833, 3832
3071, 3371, 3372, 3393, 3392, 3812, 3813, 3834, 3833
3072, 3372, 3373, 3394, 3393, 3813, 3814, 3835, 3834
3073, 3373, 3374, 3395, 3394, 3814, 3815, 3836, 3835
3074, 3374, 3375, 3396, 3395, 3815, 3816, 3837, 3836
3075, 3375, 3376, 3397, 3396, 3816, 3817, 3838, 3837
3076, 3376, 3377, 3398, 3397, 3817, 3818, 3839, 3838
3077, 3377, 3378, 3399, 3398, 3818, 3819, 3840, 3839
3078, 3378, 3379, 3400, 3399, 3819, 3820, 3841, 3840
3079, 3379, 3380, 3401, 3400, 3820, 3821, 3842, 3841
3080, 3380, 3381, 3402, 3401, 3821, 3822, 3843, 3842
3081, 3382, 3383, 3404, 3403, 3823, 3824, 3845, 3844
3082, 3383, 3384, 3405, 3404, 3824, 3825, 3846, 3845
3083, 3384, 3385, 3406, 3405, 3825, 3826, 3847, 3846
3084, 3385, 3386, 3407, 3406, 3826, 3827, 3848, 3847
3085, 3386, 3387, 3408, 3407, 3827, 3828, 3849, 3848
3086, 3387, 3388, 3409, 3408, 3828, 3829, 3850, 3849
3087, 3388, 3389, 3410, 3409, 3829, 3830, 3851, 3850
3088, 3389, 3390, 3411, 3410, 3830, 3831, 3852, 3851
3089, 3390, 3391, 3412, 3411, 3831, 3832, 3853, 3852
3090, 3391, 3392, 3413, 3412, 3832, 3833, 3854, 3853
3091, 3392, 3393, 3414, 3413, 3833, 3834, 3855, 3854
3092, 3393, 3394, 3415, 3414, 3834, 3835, 3856, 3855
3093, 3394, 3395, 3416, 3415, 3835, 3836, 3857, 3856
3094, 3395, 3396, 3417, 3416, 3836, 3837, 3858, 3857
3095, 3396, 3397, 3418, 3417, 3837, 3838, 3859, 3858
3096, 3397, 3398, 3419, 3418, 3838, 3839, 3860, 3859
3097, 3398, 3399, 3420, 3419, 3839, 3840, 3861, 3860
3098, 3399, 3400, 3421, 3420, 3840, 3841, 3862, 3861
3099, 3400, 3401, 3422, 3421, 3841, 3842, 3863, 3862
3100, 3401, 3402, 3423, 3422, 3842, 3843, 3864, 3863
3101, 3403, 3404, 3425, 3424, 3844, 3845, 3866, 3865
3102, 3404, 3405, 3426, 3425, 3845, 3846, 3867, 3866
3103, 3405, 3406, 3427, 3426, 3846, 3847, 3868, 3867
3104, 3406, 3407, 3428, 3427, 3847, 3848, 3869, 3868
3105, 3407, 3408, 3429, 3428, 3848, 3849, 3870, 3869
3106, 3408, 3409, 3430, 3429, 3849, 3850, 3871, 3870
3107, 3409, 3410, 3431, 3430, 3850, 3851, 3872, 3871
3108, 3410, 3411, 3432, 3431, 3851, 3852, 3873, 3872
3109, 3411, 3412, 3433, 3432, 3852, 3853, 3874, 3873
3110, 3412, 3413, 3434, 3433, 3853, 3854, 3875, 3874
3111, 3413, 3414, 3435, 3434, 3854, 3855, 3876, 3875
3112, 3414, 3415, 3436, 3435, 3855, 3856, 3877, 3876
3113, 3415, 3416, 3437, 3436, 3856, 3857, 3878, 3877
3114, 3416, 3417, 3438, 3437, 3857, 3858, 3879, 3878
3115, 3417, 3418, 3439, 3438, 3858, 3859, 3880, 3879
3116, 3418, 3419, 3440, 3439, 3859, 3860, 3881, 3880
3117, 3419, 3420, 3441, 3440, 3860, 3861, 3882, 3881
3118, 3420, 3421, 3442, 3441, 3861, 3862, 3883, 3882
3119, 3421, 3422, 3443, 3442, 3862, 3863, 3884, 3883
3120, 3422, 3423, 3444, 3443, 3863, 3864, 3885, 3884
3121, 3424, 3425, 3446, 3445, 3865, 3866, 3887, 3886
3122, 3425, 3426, 3447, 3446, 3866, 3867, 3888, 3887
3123, 3426, 3427, 3448, 3447, 3867, 3868, 3889, 3888
3124, 3427, 3428, 3449, 3448, 3868, 3869, 3890, 3889
3125, 3428, 3429, 3450, 3449, 3869, 3870, 3891, 3890
3126, 3429, 3430, 3451, 3450, 3870, 3871, 3892, 3891
3127, 3430, 3431, 3452, 3451, 3871, 3872, 3893, 3892
3128, 3431, 3432, 3453, 3452, 3872, 3873, 3894, 3893
3129, 3432, 3433, 3454, 3453, 3873, 3874, 3895, 3894
3130, 3433, 3434, 3455, 3454, 3874, 3875, 3896, 3895
3131, 3434, 3435, 3456, 3455, 3875, 3876, 3897, 3896
3132, 3435, 3436, 3457, 3456, 3876, 3877, 3898, 3897
3133, 3436, 3437, 3458, 3457, 3877, 3878, 3899, 3898
3134, 3437, 3438, 3459, 3458, 3878, 3879, 3900, 3899
3135, 3438, 3439, 3460, 3459, 3879, 3880, 3901, 3900
3136, 3439, 3440, 3461, 3460, 3880, 3881, 3902, 3901
3137, 3440, 3441, 3462, 3461, 3881, 3882, 3903, 3902
3138, 3441, 3442, 3463, 3462, 3882, 3883, 3904, 3903
3139, 3442, 3443, 3464, 3463, 3883, 3884, 3905, 3904
3140, 3443, 3444, 3465, 3464, 3884, 3885, 3906, 3905
3141, 3445, 3446, 3467, 3466, 3886, 3887, 3908, 3907
3142, 3446, 3447, 3468, 3467, 3887, 3888, 3909, 3908
3143, 3447, 3448, 3469, 3468, 3888, 3889, 3910, 3909
3144, 3448, 3449, 3470, 3469, 3889, 3890, 3911, 3910
3145, 3449, 3450, 3471, 3470, 3890, 3891, 3912, 3911
3146, 3450, 3451, 3472, 3471, 3891, 3892, 3913, 3912
3147, 3451, 3452, 3473, 3472, 3892, 3893, 3914, 3913
3148, 3452, 3453, 3474, 3473, 3893, 3894, 3915, 3914
3149, 3453, 3454, 3475, 3474, 3894, 3895, 3916, 3915
3150, 3454, 3455, 3476, 3475, 3895, 3896, 3917, 3916
3151, 3455, 3456, 3477, 3476, 3896, 3897, 3918, 3917
3152, 3456, 3457, 3478, 3477, 3897, 3898, 3919, 3918
3153, 3457, 3458, 3479, 3478, 3898, 3899, 3920, 3919
3154, 3458, 3459, 3480, 3479, 3899, 3900, 3921, 3920
3155, 3459, 3460, 3481, 3480, 3900, 3901, 3922, 3921
3156, 3460, 3461, 3482, 3481, 3901, 3902, 3923, 3922
3157, 3461, 3462, 3483, 3482, 3902, 3903, 3924, 3923
3158, 3462, 3463, 3484, 3483, 3903, 3904, 3925, 3924
3159, 3463, 3464, 3485, 3484, 3904, 3905, 3926, 3925
3160, 3464, 3465, 3486, 3485, 3905, 3906, 3927, 3926
3161, 3466, 3467, 3488, 3487, 3907, 3908, 3929, 3928
3162, 3467, 3468, 3489, 3488, 3908, 3909, 3930, 3929
3163, 3468, 3469, 3490, 3489, 3909, 3910, 3931, 3930
3164, 3469, 3470, 3491, 3490, 3910, 3911, 3932, 3931
3165, 3470, 3471, 3492, 3491, 3911, 3912, 3933, 3932
3166, 3471, 3472, 3493, 3492, 3912, 3913, 3934, 3933
3167, 3472, 3473, 3494, 3493, 3913, 3914, 3935, 3934
3168, 3473, 3474, 3495, 3494, 3914, 3915, 3936, 3935
3169, 3474, 3475, 3496, 3495, 3915, 3916, 3937, 3936
3170, 3475, 3476, 3497, 3496, 3916, 3917, 3938, 3937
3171, 3476, 3477, 3498, 3497, 3917, 3918, 3939, 3938
3172, 3477, 3478, 3499, 3498, 3918, 3919, 3940, 3939
3173, 3478, 3479, 3500, 3499, 3919, 3920, 3941, 3940
3174, 3479, 3480, 3501, 3500, 3920, 3921, 3942, 3941
3175, 3480, 3481, 3502, 3501, 3921, 3922, 3943, 3942
3176, 3481, 3482, 3503, 3502, 3922, 3923, 3944, 3943
3177, 3482, 3483, 3504, 3503, 3923, 3924, 3945, 3944
3178, 3483, 3484, 3505, 3504, 3924, 3925, 3946, 3945
3179, 3484, 3485, 3506, 3505, 3925, 3926, 3947, 3946
3180, 3485, 3486, 3507, 3506, 3926, 3927, 3948, 3947
3181, 3487, 3488, 3509, 3508, 3928, 3929, 3950, 3949
3182, 3488, 3489, 3510, 3509, 3929, 3930, 3951, 3950
3183, 3489, 3490, 3511, 3510, 3930, 3931, 3952, 3951
3184, 3490, 3491, 3512, 3511, 3931, 3932, 3953, 3952
3185, 3491, 3492, 3513, 3512, 3932, 3933, 3954, 3953
3186, 3492, 3493, 3514, 3513, 3933, 3934, 3955, 3954
3187, 3493, 3494, 3515, 3514, 3934, 3935, 3956, 3955
3188, 3494, 3495, 3516, 3515, 3935, 3936, 3957, 3956
3189, 3495, 3496, 3517, 3516, 3936, 3937, 3958, 3957
3190, 3496, 3497, 3518, 3517, 3937, 3938, 3959, 3958
3191, 3497, 3498, 3519, 3518, 3938, 3939, 3960, 3959
3192, 3498, 3499, 3520, 3519, 3939, 3940, 3961, 3960
3193, 3499, 3500, 3521, 3520, 3940, 3941, 3962, 3961
3194, 3500, 3501, 3522, 3521, 3941, 3942, 3963, 3962
3195, 3501, 3502, 3523, 3522, 3942, 3943, 3964, 3963
3196, 3502, 3503, 3524, 3523, 3943, 3944, 3965, 3964
3197, 3503, 3504, 3525, 3524, 3944, 3945, 3966, 3965
3198, 3504, 3505, 3526, 3525, 3945, 3946, 3967, 3966
3199, 3505, 3506, 3527, 3526, 3946, 3947, 3968, 3967
3200, 3506, 3507, 3528, 3527, 3947, 3948, 3969, 3968
3201, 3529, 3530, 3551, 3550, 3970, 3971, 3992, 3991
3202, 3530, 3531, 3552, 3551, 3971, 3972, 3993, 3992
3203, 3531, 3532, 3553, 3552, 3972, 3973, 3994, 3993
3204, 3532, 3533, 3554, 3553, 3973, 3974, 3995, 3994
3205, 3533, 3534, 3555, 3554, 3974, 3975, 3996, 3995
3206, 3534, 3535, 3556, 3555, 3975, 3976, 3997, 3996
3207, 3535, 3536, 3557, 3556, 3976, 3977, 3998, 3997
3208, 3536, 3537, 3558, 3557, 3977, 3978, 3999, 3998
3209, 3537, 3538, 3559, 3558, 3978, 3979, 4000, 3999
3210, 3538, 3539, 3560, 3559, 3979, 3980, 4001, 4000
3211, 3539, 3540, 3561, 3560, 3980, 3981, 4002, 4001
3212, 3540, 3541, 3562, 3561, 3981, 3982, 4003, 4002
3213, 3541, 3542, 3563, 3562, 3982, 3983, 4004, 4003
3214, 3542, 3543, 3564, 3563, 3983, 3984, 4005, 4004
3215, 3543, 3544, 3565, 3564, 3984, 3985, 4006, 4005
3216, 3544, 3545, 3566, 3565, 3985, 3986, 4007, 4006
3217, 3545, 3546, 3567, 3566, 3986, 3987, 4008, 4007
3218, 3546, 3547, 3568, 3567, 3987, 3988, 4009, 4008
3219, 3547, 3548, 3569, 3568, 3988, 3989, 4010, 4009
3220, 3548, 3549, 3570, 3569, 3989, 3990, 4011, 4010
3221, 3550, 3551, 3572, 3571, 3991, 3992, 4013, 4012
3222, 3551, 3552, 3573, 3572, 3992, 3993, 4014, 4013
3223, 3552, 3553, 3574, 3573, 3993, 3994, 4015, 4014
3224, 3553, 3554, 3575, 3574, 3994, 3995, 4016, 4015
3225, 3554, 3555, 3576, 3575, 3995, 3996, 4017, 4016
3226, 3555, 3556, 3577, 3576, 3996, 3997, 4018, 4017
3227, 3556, 3557, 3578, 3577, 3997, 3998, 4019, 4018
3228, 3557, 3558, 3579, 3578, 3998, 3999, 4020, 4019
3229, 3558, 3559, 3580, 3579, 3999, 4000, 4021, 4020
3230, 3559, 3560, 3581, 3580, 4000, 4001, 4022, 4021
3231, 3560, 3561, 3582, 3581, 4001, 4002, 4023, 4022
3232, 3561, 3562, 3583, 3582, 4002, 4003, 4024, 4023
3233, 3562, 3563, 3584, 3583, 4003, 4004, 4025, 4024
3234, 3563, 3564, 3585, 3584, 4004, 4005, 4026, 4025
3235, 3564, 3565, 3586, 3585, 4005, 4006, 4027, 4026
3236, 3565, 3566, 3587, 3586, 4006, 4007, 4028, 4027
3237, 3566, 3567, 3588, 3587, 4007, 4008, 4029, 4028
3238, 3567, 3568, 3589, 3588, 4008, 4009, 4030, 4029
3239, 3568, 3569, 3590, 3589, 4009, 4010, 4031, 4030
3240, 3569, 3570, 3591, 3590, 4010, 4011, 4032, 4031
3241, 3571, 3572, 3593, 3592, 4012, 4013, 4034, 4033
3242, 3572, 3573, 3594, 3593, 4013, 4014, 4035, 4034
3243, 3573, 3574, 3595, 3594, 4014, 4015, 4036, 4035
3244, 3574, 3575, 3596, 3595, 4015, 4016, 4037, 4036
3245, 3575, 3576, 3597, 3596, 4016, 4017, 4038, 4037
3246, 3576, 3577, 3598, 3597, 4017, 4018, 4039, 4038
3247, 3577, 3578, 3599, 3598, 4018, 4019, 4040, 4039
3248, 3578, 3579, 3600, 3599, 4019, 4020, 4041, 4040
3249, 3579, 3580, 3601, 3600, 4020, 4021, 4042, 4041
3250, 3580, 3581, 3602, 3601, 4021, 4022, 4043, 4042
3251, 3581, 3582, 3603, 3602, 4022, 4023, 4044, 4043
3252, 3582, 3583, 3604, 3603, 4023, 4024, 4045, 4044
3253, 3583, 3584, 3605, 3604, 4024, 4025, 4046, 4045
3254, 3584, 3585, 3606, 3605, 4025, 4026, 4047, 4046
3255, 3585, 3586, 3607, 3606, 4026, 4027, 4048, 4047
3256, 3586, 3587, 3608, 3607, 4027, 4028, 4049, 4048
3257, 3587, 3588, 3609, 3608, 4028, 4029, 4050, 4049
3258, 3588, 3589, 3610, 3609, 4029, 4030, 4051, 4050
3259, 3589, 3590, 3611, 3610, 4030, 4031, 4052, 4051
3260, 3590, 3591, 3612, 3611, 4031, 4032, 4053, 4052
3261, 3592, 3593, 3614, 3613, 4033, 4034, 4055, 4054
3262, 3593, 3594, 3615, 3614, 4034, 4035, 4056, 4055
3263, 3594, 3595, 3616, 3615, 4035, 4036, 4057, 4056
3264, 3595, 3596, 3617, 3616, 4036, 4037, 4058, 4057
3265, 3596, 3597, 3618, 3617, 4037, 4038, 4059, 4058
3266, 3597, 3598, 3619, 3618, 4038, 4039, 4060, 4059
3267, 3598, 3599, 3620, 3619, 4039, 4040, 4061, 4060
3268, 3599, 3600, 3621, 3620, 4040, 4041, 4062, 4061
3269, 3600, 3601, 3622, 3621, 4041, 4042, 4063, 4062
3270, 3601, 3602, 3623, 3622, 4042, 4043, 4064, 4063
3271, 3602, 3603, 3624, 3623, 4043, 4044, 4065, 4064
3272, 3603, 3604, 3625, 3624, 4044, 4045, 4066, 4065
3273, 3604, 3605, 3626, 3625, 4045, 4046, 4067, 4066
3274, 3605, 3606, 3627, 3626, 4046, 4047, 4068, 4067
3275, 3606, 3607, 3628, 3627, 4047, 4048, 4069, 4068
3276, 3607, 3608, 3629, 3628, 4048, 4049, 4070, 4069
3277, 3608, 3609, 3630, 3629, 4049, 4050, 4071, 4070
3278, 3609, 3610, 3631, 3630, 4050, 4051, 4072, 4071
3279, 3610, 3611, 3632, 3631, 4051, 4052, 4073, 4072
3280, 3611, 3612, 3633, 3632, 4052, 4053, 4074, 4073
3281, 3613, 3614, 3635, 3634, 4054, 4055, 4076, 4075
3282, 3614, 3615, 3636, 3635, 4055, 4056, 4077, 4076
3283, 3615, 3616, 3637, 3636, 4056, 4057, 4078, 4077
3284, 3616, 3617, 3638, 3637, 4057, 4058, 4079, 4078
3285, 3617, 3618, 3639, 3638, 4058, 4059, 4080, 4079
3286, 3618, 3619, 3640, 3639, 4059, 4060, 4081, 4080
3287, 3619, 3620, 3641, 3640, 4060, 4061, 4082, 4081
3288, 3620, 3621, 3642, 3641, 4061, 4062, 4083, 4082
3289, 3621, 3622, 3643, 3642, 4062, 4063, 4084, 4083
3290, 3622, 3623, 3644, 3643, 4063, 4064, 4085, 4084
3291, 3623, 3624, 3645, 3644, 4064, 4065, 4086, 4085
3292, 3624, 3625, 3646, 3645, 4065, 4066, 4087, 4086
3293, 3625, 3626, 3647, 3646, 4066, 4067, 4088, 4087
3294, 3626, 3627, 3648, 3647, 4067, 4068, 4089, 4088
3295, 3627, 3628, 3649, 3648, 4068, 4069, 4090, 4089
3296, 3628, 3629, 3650, 3649, 4069, 4070, 4091, 4090
3297, 3629, 3630, 3651, 3650, 4070, 4071, 4092, 4091
3298, 3630, 3631, 3652, 3651, 4071, 4072, 4093, 4092
3299, 3631, 3632, 3653, 3652, 4072, 4073, 4094, 4093
3300, 3632, 3633, 3654, 3653, 4073, 4074, 4095, 4094
3301, 3634, 3635, 3656, 3655, 4075, 4076, 4097, 4096
3302, 3635, 3636, 3657, 3656, 4076, 4077, 4098, 4097
3303, 3636, 3637, 3658, 3657, 4077, 4078, 4099, 4098
3304, 3637, 3638, 3659, 3658, 4078, 4079, 4100, 4099
3305, 3638, 3639, 3660, 3659, 4079, 4080, 4101, 4100
3306, 3639, 3640, 3661, 3660, 4080, 4081, 4102, 4101
3307, 3640, 3641, 3662, 3661, 4081, 4082, 4103, 4102
3308, 3641, 3642, 3663, 3662, 4082, 4083, 4104, 4103
3309, 3642, 3643, 3664, 3663, 4083, 4084, 4105, 4104
3310, 3643, 3644, 3665, 3664, 4084, 4085, 4106, 4105
3311, 3644, 3645, 3666, 3665, 4085, 4086, 4107, 4106
3312, 3645, 3646, 3667, 3666, 4086, 4087, 4108, 4107
3313, 3646, 3647, 3668, 3667, 4087, 4088, 4109, 4108
3314, 3647, 3648, 3669, 3668, 4088, 4089, 4110, 4109
3315, 3648, 3649, 3670, 3669, 4089, 4090, 4111, 4110
3316, 3649, 3650, 3671, 3670, 4090, 4091, 4112, 4111
3317, 3650, 3651, 3672, 3671, 4091, 4092, 4113, 4112
3318, 3651, 3652, 3673, 3672, 4092, 4093, 4114, 4113
3319, 3652, 3653, 3674, 3673, 4093, 4094, 4115, 4114
3320, 3653, 3654, 3675, 3674, 4094, 4095, 4116, 4115
3321, 3655, 3656, 3677, 3676, 4096, 4097, 4118, 4117
3322, 3656, 3657, 3678, 3677, 4097, 4098, 4119, 4118
3323, 3657, 3658, 3679, 3678, 4098, 4099, 4120, 4119
3324, 3658, 3659, 3680, 3679, 4099, 4100, 4121, 4120
3325, 3659, 3660, 3681, 3680, 4100, 4101, 4122, 4121
3326, 3660, 3661, 3682, 3681, 4101, 4102, 4123, 4122
3327, 3661, 3662, 3683, 3682, 4102, 4103, 4124, 4123
3328, 3662, 3663, 3684, 3683, 4103, 4104, 4125, 4124
3329, 3663, 3664, 3685, 3684, 4104, 4105, 4126, 4125
3330, 3664, 3665, 3686, 3685, 4105, 4106, 4127, 4126
3331, 3665, 3666, 3687, 3686, 4106, 4107, 4128, 4127
3332, 3666, 3667, 3688, 3687, 4107, 4108, 4129, 4128
3333, 3667, 3668, 3689, 3688, 4108, 4109, 4130, 4129
3334, 3668, 3669, 3690, 3689, 4109, 4110, 4131, 4130
3335, 3669, 3670, 3691, 3690, 4110, 4111, 4132, 4131
3336, 3670, 3671, 3692, 3691, 4111, 4112, 4133, 4132
3337, 3671, 3672, 3693, 3692, 4112, 4113, 4134, 4133
3338, 3672, 3673, 3694, 3693, 4113, 4114, 4135, 4134
3339, 3673, 3674, 3695, 3694, 4114, 4115, 4136, 4135
3340, 3674, 3675, 3696, 3695, 4115, 4116, 4137, 4136
3341, 3676, 3677, 3698, 3697, 4117, 4118, 4139, 4138
3342, 3677, 3678, 3699, 3698, 4118, 4119, 4140, 4139
3343, 3678, 3679, 3700, 3699, 4119, 4120, 4141, 4140
3344, 3679, 3680, 3701, 3700, 4120, 4121, 4142, 4141
3345, 3680, 3681, 3702, 3701, 4121, 4122, 4143, 4142
3346, 3681, 3682, 3703, 3702, 4122, 4123, 4144, 4143
3347, 3682, 3683, 3704, 3703, 4123, 4124, 4145, 4144
3348, 3683, 3684, 3705, 3704, 4124, 4125, 4146, 4145
3349, 3684, 3685, 3706, 3705, 4125, 4126, 4147, 4146
3350, 3685, 3686, 3707, 3706, 4126, 4127, 4148, 4147
3351, 3686, 3687, 3708, 3707, 4127, 4128, 4149, 4148
3352, 3687, 3688, 3709, 3708, 4128, 4129, 4150, 4149
3353, 3688, 3689, 3710, 3709, 4129, 4130, 4151, 4150
3354, 3689, 3690, 3711, 3710, 4130, 4131, 4152, 4151
3355, 3690, 3691, 3712, 3711, 4131, 4132, 4153, 4152
3356, 3691, 3692, 3713, 3712, 4132, 4133, 4154, 4153
3357, 3692, 3693, 3714, 3713, 4133, 4134, 4155, 4154
3358, 3693, 3694, 3715, 3714, 4134, 4135, 4156, 4155
3359, 3694, 3695, 3716, 3715, 4135, 4136, 4157, 4156
3360, 3695, 3696, 3717, 3716, 4136, 4137, 4158, 4157
3361, 3697, 3698, 3719, 3718, 4138, 4139, 4160, 4159
3362, 3698, 3699, 3720, 3719, 4139, 4140, 4161, 4160
3363, 3699, 3700, 3721, 3720, 4140, 4141, 4162, 4161
3364, 3700, 3701, 3722, 3721, 4141, 4142, 4163, 4162
3365, 3701, 3702, 3723, 3722, 4142, 4143, 4164, 4163
3366, 3702, 3703, 3724, 3723, 4143, 4144, 4165, 4164
3367, 3703, 3704, 3725, 3724, 4144, 4145, 4166, 4165
3368, 3704, 3705, 3726, 3725, 4145, 4146, 4167, 4166
3369, 3705, 3706, 3727, 3726, 4146, 4147, 4168, 4167
3370, 3706, 3707, 3728, 3727, 4147, 4148, 4169, 4168
3371, 3707, 3708, 3729, 3728, 4148, 4149, 4170, 4169
3372, 3708, 3709, 3730, 3729, 4149, 4150, 4171, 4170
3373, 3709, 3710, 3731, 3730, 4150, 4151, 4172, 4171
3374, 3710, 3711, 3732, 3731, 4151, 4152, 4173, 4172
3375, 3711, 3712, 3733, 3732, 4152, 4153, 4174, 4173
3376, 3712, 3713, 3734, 3733, 4153, 4154, 4175, 4174
3377, 3713, 3714, 3735, 3734, 4154, 4155, 4176, 4175
3378, 3714, 3715, 3736, 3735, 4155, 4156, 4177, 4176
3379, 3715, 3716, 3737, 3736, 4156, 4157, 4178, 4177
3380, 3716, 3717, 3738, 3737, 4157, 4158, 4179, 4178
3381, 3718, 3719, 3740, 3739, 4159, 4160, 4181, 4180
3382, 3719, 3720, 3741, 3740, 4160, 4161, 4182, 4181
3383, 3720, 3721, 3742, 3741, 4161, 4162, 4183, 4182
3384, 3721, 3722, 3743, 3742, 4162, 4163, 4184, 4183
3385, 3722, 3723, 3744, 3743, 4163, 4164, 4185, 4184
3386, 3723, 3724, 3745, 3744, 4164, 4165, 4186, 4185
3387, 3724, 3725, 3746, 3745, 4165, 4166, 4187, 4186
3388, 3725, 3726, 3747, 3746, 4166, 4167, 4188, 4187
3389, 3726, 3727, 3748, 3747, 4167, 4168, 4189, 4188
3390, 3727, 3728, 3749, 3748, 4168, 4169, 4190, 4189
3391, 3728, 3729, 3750, 3749, 4169, 4170, 4191, 4190
3392, 3729, 3730, 3751, 3750, 4170, 4171, 4192, 4191
3393, 3730, 3731, 3752, 3751, 4171, 4172, 4193, 4192
3394, 3731, 3732, 3753, 3752, 4172, 4173, 4194, 4193
3395, 3732, 3733, 3754, 3753, 4173, 4174, 4195, 4194
3396, 3733, 3734, 3755, 3754, 4174, 4175, 4196, 4195
3397, 3734, 3735, 3756, 3755, 4175, 4176, 4197, 4196
3398, 3735, 3736, 3757, 3756, 4176, 4177, 4198, 4197
3399, 3736, 3737, 3758, 3757, 4177, 4178, 4199, 4198
3400, 3737, 3738, 3759, 3758, 4178, 4179, 4200, 4199
3401, 3739, 3740, 3761, 3760, 4180, 4181, 4202, 4201
3402, 3740, 3741, 3762, 3761, 4181, 4182, 4203, 4202
3403, 3741, 3742, 3763, 3762, 4182, 4183, 4204, 4203
3404, 3742, 3743, 3764, 3763, 4183, 4184, 4205, 4204
3405, 3743, 3744, 3765, 3764, 4184, 4185, 4206, 4205
3406, 3744, 3745, 3766, 3765, 4185, 4186, 4207, 4206
3407, 3745, 3746, 3767, 3766, 4186, 4187, 4208, 4207
3408, 3746, 3747, 3768, 3767, 4187, 4188, 4209, 4208
3409, 3747, 3748, 3769, 3768, 4188, 4189, 4210, 4209
3410, 3748, 3749, 3770, 3769, 4189, 4190, 4211, 4210
3411, 3749, 3750, 3771, 3770, 4190, 4191, 4212, 4211
3412, 3750, 3751, 3772, 3771, 4191, 4192, 4213, 4212
3413, 3751, 3752, 3773, 3772, 4192, 4193, 4214, 4213
3414, 3752, 3753, 3774, 3773, 4193, 4194, 4215, 4214
3415, 3753, 3754, 3775, 3774, 4194, 4195, 4216, 4215
3416, 3754, 3755, 3776, 3775, 4195, 4196, 4217, 4216
3417, 3755, 3756, 3777, 3776, 4196, 4197, 4218, 4217
3418, 3756, 3757, 3778, 3777, 4197, 4198, 4219, 4218
3419, 3757, 3758, 3779, 3778, 4198, 4199, 4220, 4219
3420, 3758, 3759, 3780, 3779, 4199, 4200, 4221, 4220
3421, 3760, 3761, 3782, 3781, 4201, 4202, 4223, 4222
3422, 3761, 3762, 3783, 3782, 4202, 4203, 4224, 4223
3423, 3762, 3763, 3784, 3783, 4203, 4204, 4225, 4224
3424, 3763, 3764, 3785, 3784, 4204, 4205, 4226, 4225
3425, 3764, 3765, 3786, 3785, 4205, 4206, 4227, 4226
3426, 3765, 3766, 3787, 3786, 4206, 4207, 4228, 4227
3427, 3766, 3767, 3788, 3787, 4207, 4208, 4229, 4228
3428, 3767, 3768, 3789, 3788, 4208, 4209, 4230, 4229
3429, 3768, 3769, 3790, 3789, 4209, 4210, 4231, 4230
3430, 3769, 3770, 3791, 3790, 4210, 4211, 4232, 4231
3431, 3770, 3771, 3792, 3791, 4211, 4212, 4233, 4232
3432, 3771, 3772, 3793, 3792, 4212, 4213, 4234, 4233
3433, 3772, 3773, 3794, 3793, 4213, 4214, 4235, 4234
3434, 3773, 3774, 3795, 3794, 4214, 4215, 4236, 4235
3435, 3774, 3775, 3796, 3795, 4215, 4216, 4237, 4236
3436, 3775, 3776, 3797, 3796, 4216, 4217, 4238, 4237
3437, 3776, 3777, 3798, 3797, 4217, 4218, 4239, 4238
3438, 3777, 3778, 3799, 3798, 4218, 4219, 4240, 4239
3439, 3778, 3779, 3800, 3799, 4219, 4220, 4241, 4240
3440, 3779, 3780, 3801, 3800, 4220, 4221, 4242, 4241
3441, 3781, 3782, 3803, 3802, 4222, 4223, 4244, 4243
3442, 3782, 3783, 3804, 3803, 4223, 4224, 4245, 4244
3443, 3783, 3784, 3805, 3804, 4224, 4225, 4246, 4245
3444, 3784, 3785, 3806, 3805, 4225, 4226, 4247, 4246
3445, 3785, 3786, 3807, 3806, 4226, 4227, 4248, 4247
3446, 3786, 3787, 3808, 3807, 4227, 4228, 4249, 4248
3447, 3787, 3788, 3809, 3808, 4228, 4229, 4250, 4249
3448, 3788, 3789, 3810, 3809, 4229, 4230, 4251, 4250
3449, 3789, 3790, 3811, 3810, 4230, 4231, 4252, 4251
3450, 3790, 3791, 3812, 3811, 4231, 4232, 4253, 4252
3451, 3791, 3792, 3813, 3812, 4232, 4233, 4254, 4253
3452, 3792, 3793, 3814, 3813, 4233, 4234, 4255, 4254
3453, 3793, 3794, 3815, 3814, 4234, 4235, 4256, 4255
3454, 3794, 3795, 3816, 3815, 4235, 4236, 4257, 4256
3455, 3795, 3796, 3817, 3816, 4236, 4237, 4258, 4257
3456, 3796, 3797, 3818, 3817, 4237, 4238, 4259, 4258
3457, 3797, 3798, 3819, 3818, 4238, 4239, 4260, 4259
3458, 3798, 3799, 3820, 3819, 4239, 4240, 4261, 4260
3459, 3799, 3800, 3821, 3820, 4240, 4241, 4262, 4261
3460, 3800, 3801, 3822, 3821, 4241, 4242, 4263, 4262
3461, 3802, 3803, 3824, 3823, 4243, 4244, 4265, 4264
3462, 3803, 3804, 3825, 3824, 4244, 4245, 4266, 4265
3463, 3804, 3805, 3826, 3825, 4245, 4246, 4267, 4266
3464, 3805, 3806, 3827, 3826, 4246, 4247, 4268, 4267
3465, 3806, 3807, 3828, 3827, 4247, 4248, 4269, 4268
3466, 3807, 3808, 3829, 3828, 4248, 4249, 4270, 4269
3467, 3808, 3809, 3830, 3829, 4249, 4250, 4271, 4270
3468, 3809, 3810, 3831, 3830, 4250, 4251, 4272, 4271
3469, 3810, 3811, 3832, 3831, 4251, 4252, 4273, 4272
3470, 3811, 3812, 3833, 3832, 4252, 4253, 4274, 4273
3471, 3812, 3813, 3834, 3833, 4253, 4254, 4275, 4274
3472, 3813, 3814, 3835, 3834, 4254, 4255, 4276, 4275
3473, 3814, 3815, 3836, 3835, 4255, 4256, 4277, 4276
3474, 3815, 3816, 3837, 3836, 4256, 4257, 4278, 4277
3475, 3816, 3817, 3838, 3837, 4257, 4258, 4279, 4278
3476, 3817, 3818, 3839, 3838, 4258, 4259, 4280, 4279
3477, 3818, 3819, 3840, 3839, 4259, 4260, 4281, 4280
3478, 3819, 3820, 3841, 3840, 4260, 4261, 4282, 4281
3479, 3820, 3821, 3842, 3841, 4261, 4262, 4283, 4282
3480, 3821, 3822, 3843, 3842, 4262, 4263, 4284, 4283
3481, 3823, 3824, 3845, 3844, 4264, 4265, 4286, 4285
3482, 3824, 3825, 3846, 3845, 4265, 4266, 4287, 4286
3483, 3825, 3826, 3847, 3846, 4266, 4267, 4288, 4287
3484, 3826, 3827, 3848, 3847, 4267, 4268, 4289, 4288
3485, 3827, 3828, 3849, 3848, 4268, 4269, 4290, 4289
3486, 3828, 3829, 3850, 3849, 4269, 4270, 4291, 4290
3487, 3829, 3830, 3851, 3850, 4270, 4271, 4292, 4291
3488, 3830, 3831, 3852, 3851, 4271, 4272, 4293, 4292
3489, 3831, 3832, 3853, 3852, 4272, 4273, 4294, 4293
3490, 3832, 3833, 3854, 3853, 4273, 4274, 4295, 4294
3491, 3833, 3834, 3855, 3854, 4274, 4275, 4296, 4295
3492, 3834, 3835, 3856, 3855, 4275, 4276, 4297, 4296
3493, 3835, 3836, 3857, 3856, 4276, 4277, 4298, 4297
3494, 3836, 3837, 3858, 3857, 4277, 4278, 4299, 4298
3495, 3837, 3838, 3859, 3858, 4278, 4279, 4300, 4299
3496, 3838, 3839, 3860, 3859, 4279, 4280, 4301, 4300
3497, 3839, 3840, 3861, 3860, 4280, 4281, 4302, 4301
3498, 3840, 3841, 3862, 3861, 4281, 4282, 4303, 4302
3499, 3841, 3842, 3863, 3862, 4282, 4283, 4304, 4303
3500, 3842, 3843, 3864, 3863, 4283, 4284, 4305, 4304
3501, 3844, 3845, 3866, 3865, 4285, 4286, 4307, 4306
3502, 3845, 3846, 3867, 3866, 4286, 4287, 4308, 4307
3503, 3846, 3847, 3868, 3867, 4287, 4288, 4309, 4308
3504, 3847, 3848, 3869, 3868, 4288, 4289, 4310, 4309
3505, 3848, 3849, 3870, 3869, 4289, 4290, 4311, 4310
3506, 3849, 3850, 3871, 3870, 4290, 4291, 4312, 4311
3507, 3850, 3851, 3872, 3871, 4291, 4292, 4313, 4312
3508, 3851, 3852, 3873, 3872, 4292, 4293, 4314, 4313
3509, 3852, 3853, 3874, 3873, 4293, 4294, 4315, 4314
3510, 3853, 3854, 3875, 3874, 4294, 4295, 4316, 4315
3511, 3854, 3855, 3876, 3875, 4295, 4296, 4317, 4316
3512, 3855, 3856, 3877, 3876, 4296, 4297, 4318, 4317
3513, 3856, 3857, 3878, 3877, 4297, 4298, 4319, 4318
3514, 3857, 3858, 3879, 3878, 4298, 4299, 4320, 4319
3515, 3858, 3859, 3880, 3879, 4299, 4300, 4321, 4320
3516, 3859, 3860, 3881, 3880, 4300, 4301, 4322, 4321
3517, 3860, 3861, 3882, 3881, 4301, 4302, 4323, 4322
3518, 3861, 3862, 3883, 3882, 4302, 4303, 4324, 4323
3519, 3862, 3863, 3884, 3883, 4303, 4304, 4325, 4324
3520, 3863, 3864, 3885, 3884, 4304, 4305, 4326, 4325
3521, 3865, 3866, 3887, 3886, 4306, 4307, 4328, 4327
3522, 3866, 3867, 3888, 3887, 4307, 4308, 4329, 4328
3523, 3867, 3868, 3889, 3888, 4308, 4309, 4330, 4329
3524, 3868, 3869, 3890, 3889, 4309, 4310, 4331, 4330
3525, 3869, 3870, 3891, 3890, 4310, 4311, 4332, 4331
3526, 3870, 3871, 3892, 3891, 4311, 4312, 4333, 4332
3527, 3871, 3872, 3893, 3892, 4312, 4313, 4334, 4333
3528, 3872, 3873, 3894, 3893, 4313, 4314, 4335, 4334
3529, 3873, 3874, 3895, 3894, 4314, 4315, 4336, 4335
3530, 3874, 3875, 3896, 3895, 4315, 4316, 4337, 4336
3531, 3875, 3876, 3897, 3896, 4316, 4317, 4338, 4337
3532, 3876, 3877, 3898, 3897, 4317, 4318, 4339, 4338
3533, 3877, 3878, 3899, 3898, 4318, 4319, 4340, 4339
3534, 3878, 3879, 3900, 3899, 4319, 4320, 4341, 4340
3535, 3879, 3880, 3901, 3900, 4320, 4321, 4342, 4341
3536, 3880, 3881, 3902, 3901, 4321, 4322, 4343, 4342
3537, 3881, 3882, 3903, 3902, 4322, 4323, 4344, 4343
3538, 3882, 3883, 3904, 3903, 4323, 4324, 4345, 4344
3539, 3883, 3884, 3905, 3904, 4324, 4325, 4346, 4345
3540, 3884, 3885, 3906, 3905, 4325, 4326, 4347, 4346
3541, 3886, 3887, 3908, 3907, 4327, 4328, 4349, 4348
3542, 3887, 3888, 3909, 3908, 4328, 4329, 4350, 4349
3543, 3888, 3889, 3910, 3909, 4329, 4330, 4351, 4350
3544, 3889, 3890, 3911, 3910, 4330, 4331, 4352, 4351
3545, 3890, 3891, 3912, 3911, 4331, 4332, 4353, 4352
3546, 3891, 3892, 3913, 3912, 4332, 4333, 4354, 4353
3547, 3892, 3893, 3914, 3913, 4333, 4334, 4355, 4354
3548, 3893, 3894, 3915, 3914, 4334, 4335, 4356, 4355
3549, 3894, 3895, 3916, 3915, 4335, 4336, 4357, 4356
3550, 3895, 3896, 3917, 3916, 4336, 4337, 4358, 4357
3551, 3896, 3897, 3918, 3917, 4337, 4338, 4359, 4358
3552, 3897, 3898, 3919, 3918, 4338, 4339, 4360, 4359
3553, 3898, 3899, 3920, 3919, 4339, 4340, 4361, 4360
3554, 3899, 3900, 3921, 3920, 4340, 4341, 4362, 4361
3555, 3900, 3901, 3922, 3921, 4341, 4342, 4363, 4362
3556, 3901, 3902, 3923, 3922, 4342, 4343, 4364, 4363
3557, 3902, 3903, 3924, 3923, 4343, 4344, 4365, 4364
3558, 3903, 3904, 3925, 3924, 4344, 4345, 4366, 4365
3559, 3904, 3905, 3926, 3925, 4345, 4346, 4367, 4366
3560, 3905, 3906, 3927, 3926, 4346, 4347, 4368, 4367
3561, 3907, 3908, 3929, 3928, 4348, 4349, 4370, 4369
3562, 3908, 3909, 3930, 3929, 4349, 4350, 4371, 4370
3563, 3909, 3910, 3931, 3930, 4350, 4351, 4372, 4371
3564, 3910, 3911, 3932, 3931, 4351, 4352, 4373, 4372
3565, 3911, 3912, 3933, 3932, 4352, 4353, 4374, 4373
3566, 3912, 3913, 3934, 3933, 4353, 4354, 4375, 4374
3567, 3913, 3914, 3935, 3934, 4354, 4355, 4376, 4375
3568, 3914, 3915, 3936, 3935, 4355, 4356, 4377, 4376
3569, 3915, 3916, 3937, 3936, 4356, 4357, 4378, 4377
3570, 3916, 3917, 3938, 3937, 4357, 4358, 4379, 4378
3571, 3917, 3918, 3939, 3938, 4358, 4359, 4380, 4379
3572, 3918, 3919, 3940, 3939, 4359, 4360, 4381, 4380
3573, 3919, 3920, 3941, 3940, 4360, 4361, 4382, 4381
3574, 3920, 3921, 3942, 3941, 4361, 4362, 4383, 4382
3575, 3921, 3922, 3943, 3942, 4362, 4363, 4384, 4383
3576, 3922, 3923, 3944, 3943, 4363, 4364, 4385, 4384
3577, 3923, 3924, 3945, 3944, 4364, 4365, 4386, 4385
3578, 3924, 3925, 3946, 3945, 4365, 4366, 4387, 4386
3579, 3925, 3926, 3947, 3946, 4366, 4367, 4388, 4387
3580, 3926, 3927, 3948, 3947, 4367, 4368, 4389, 4388
3581, 3928, 3929, 3950, 3949, 4369, 4370, 4391, 4390
3582, 3929, 3930, 3951, 3950, 4370, 4371, 4392, 4391
3583, 3930, 3931, 3952, 3951, 4371, 4372, 4393, 4392
3584, 3931, 3932, 3953, 3952, 4372, 4373, 4394, 4393
3585, 3932, 3933, 3954, 3953, 4373, 4374, 4395, 4394
3586, 3933, 3934, 3955, 3954, 4374, 4375, 4396, 4395
3587, 3934, 3935, 3956, 3955, 4375, 4376, 4397, 4396
3588, 3935, 3936, 3957, 3956, 4376, 4377, 4398, 4397
3589, 3936, 3937, 3958, 3957, 4377, 4378, 4399, 4398
3590, 3937, 3938, 3959, 3958, 4378, 4379, 4400, 4399
3591, 3938, 3939, 3960, 3959, 4379, 4380, 4401, 4400
3592, 3939, 3940, 3961, 3960, 4380, 4381, 4402, 4401
3593, 3940, 3941, 3962, 3961, 4381, 4382, 4403, 4402
3594, 3941, 3942, 3963, 3962, 4382, 4383, 4404, 4403
3595, 3942, 3943, 3964, 3963, 4383, 4384, 4405, 4404
3596, 3943, 3944, 3965, 3964, 4384, 4385, 4406, 4405
3597, 3944, 3945, 3966, 3965, 4385, 4386, 4407, 4406
3598, 3945, 3946, 3967, 3966, 4386, 4387, 4408, 4407
3599, 3946, 3947, 3968, 3967, 4387, 4388, 4409, 4408
3600, 3947, 3948, 3969, 3968, 4388, 4389, 4410, 4409
3601, 3970, 3971, 3992, 3991, 4411, 4412, 4433, 4432
3602, 3971, 3972, 3993, 3992, 4412, 4413, 4434, 4433
3603, 3972, 3973, 3994, 3993, 4413, 4414, 4435, 4434
3604, 3973, 3974, 3995, 3994, 4414, 4415, 4436, 4435
3605, 3974, 3975, 3996, 3995, 4415, 4416, 4437, 4436
3606, 3975, 3976, 3997, 3996, 4416, 4417, 4438, 4437
3607, 3976, 3977, 3998, 3997, 4417, 4418, 4439, 4438
3608, 3977, 3978, 3999, 3998, 4418, 4419, 4440, 4439
3609, 3978, 3979, 4000, 3999, 4419, 4420, 4441, 4440
3610, 3979, 3980, 4001, 4000, 4420, 4421, 4442, 4441
3611, 3980, 3981, 4002, 4001, 4421, 4422, 4443, 4442
3612, 3981, 3982, 4003, 4002, 4422, 4423, 4444, 4443
3613, 3982, 3983, 4004, 4003, 4423, 4424, 4445, 4444
3614, 3983, 3984, 4005, 4004, 4424, 4425, 4446, 4445
3615, 3984, 3985, 4006, 4005, 4425, 4426, 4447, 4446
3616, 3985, 3986, 4007, 4006, 4426, 4427, 4448, 4447
3617, 3986, 3987, 4008, 4007, 4427, 4428, 4449, 4448
3618, 3987, 3988, 4009, 4008, 4428, 4429, 4450, 4449
3619, 3988, 3989, 4010, 4009, 4429, 4430, 4451, 4450
3620, 3989, 3990, 4011, 4010, 4430, 4431, 4452, 4451
3621, 3991, 3992, 4013, 4012, 4432, 4433, 4454, 4453
3622, 3992, 3993, 4014, 4013, 4433, 4434, 4455, 4454
3623, 3993, 3994, 4015, 4014, 4434, 4435, 4456, 4455
3624, 3994, 3995, 4016, 4015, 4435, 4436, 4457, 4456
3625, 3995, 3996, 4017, 4016, 4436, 4437, 4458, 4457
3626, 3996, 3997, 4018, 4017, 4437, 4438, 4459, 4458
3627, 3997, 3998, 4019, 4018, 4438, 4439, 4460, 4459
3628, 3998, 3999, 4020, 4019, 4439, 4440, 4461, 4460
3629, 3999, 4000, 4021, 4020, 4440, 4441, 4462, 4461
3630, 4000, 4001, 4022, 4021, 4441, 4442, 4463, 4462
3631, 4001, 4002, 4023, 4022, 4442, 4443, 4464, 4463
3632, 4002, 4003, 4024, 4023, 4443, 4444, 4465, 4464
3633, 4003, 4004, 4025, 4024, 4444, 4445, 4466, 4465
3634, 4004, 4005, 4026, 4025, 4445, 4446, 4467, 4466
3635, 4005, 4006, 4027, 4026, 4446, 4447, 4468, 4467
3636, 4006, 4007, 4028, 4027, 4447, 4448, 4469, 4468
3637, 4007, 4008, 4029, 4028, 4448, 4449, 4470, 4469
3638, 4008, 4009, 4030, 4029, 4449, 4450, 4471, 4470
3639, 4009, 4010, 4031, 4030, 4450, 4451, 4472, 4471
3640, 4010, 4011, 4032, 4031, 4451, 4452, 4473, 4472
3641, 4012, 4013, 4034, 4033, 4453, 4454, 4475, 4474
3642, 4013, 4014, 4035, 4034, 4454, 4455, 4476, 4475
3643, 4014, 4015, 4036, 4035, 4455, 4456, 4477, 4476
3644, 4015, 4016, 4037, 4036, 4456, 4457, 4478, 4477
3645, 4016, 4017, 4038, 4037, 4457, 4458, 4479, 4478
3646, 4017, 4018, 4039, 4038, 4458, 4459, 4480, 4479
3647, 4018, 4019, 4040, 4039, 4459, 4460, 4481, 4480
3648, 4019, 4020, 4041, 4040, 4460, 4461, 4482, 4481
3649, 4020, 4021, 4042, 4041, 4461, 4462, 4483, 4482
3650, 4021, 4022, 4043, 4042, 4462, 4463, 4484, 4483
3651, 4022, 4023, 4044, 4043, 4463, 4464, 4485, 4484
3652, 4023, 4024, 4045, 4044, 4464, 4465, 4486, 4485
3653, 4024, 4025, 4046, 4045, 4465, 4466, 4487, 4486
3654, 4025, 4026, 4047, 4046, 4466, 4467, 4488, 4487
3655, 4026, 4027, 4048, 4047, 4467, 4468, 4489, 4488
3656, 4027, 4028, 4049, 4048, 4468, 4469, 4490, 4489
3657, 4028, 4029, 4050, 4049, 4469, 4470, 4491, 4490
3658, 4029, 4030, 4051, 4050, 4470, 4471, 4492, 4491
3659, 4030, 4031, 4052, 4051, 4471, 4472, 4493, 4492
3660, 4031, 4032, 4053, 4052, 4472, 4473, 4494, 4493
3661, 4033, 4034, 4055, 4054, 4474, 4475, 4496, 4495
3662, 4034, 4035, 4056, 4055, 4475, 4476, 4497, 4496
3663, 4035, 4036, 4057, 4056, 4476, 4477, 4498, 4497
3664, 4036, 4037, 4058, 4057, 4477, 4478, 4499, 4498
3665, 4037, 4038, 4059, 4058, 4478, 4479, 4500, 4499
3666, 4038, 4039, 4060, 4059, 4479, 4480, 4501, 4500
3667, 4039, 4040, 4061, 4060, 4480, 4481, 4502, 4501
3668, 4040, 4041, 4062, 4061, 4481, 4482, 4503, 4502
3669, 4041, 4042, 4063, 4062, 4482, 4483, 4504, 4503
3670, 4042, 4043, 4064, 4063, 4483, 4484, 4505, 4504
3671, 4043, 4044, 4065, 4064, 4484, 4485, 4506, 4505
3672, 4044, 4045, 4066, 4065, 4485, 4486, 4507, 4506
3673, 4045, 4046, 4067, 4066, 4486, 4487, 4508, 4507
3674, 4046, 4047, 4068, 4067, 4487, 4488, 4509, 4508
3675, 4047, 4048, 4069, 4068, 4488, 4489, 4510, 4509
3676, 4048, 4049, 4070, 4069, 4489, 4490, 4511, 4510
3677, 4049, 4050, 4071, 4070, 4490, 4491, 4512, 4511
3678, 4050, 4051, 4072, 4071, 4491, 4492, 4513, 4512
3679, 4051, 4052, 4073, 4072, 4492, 4493, 4514, 4513
3680, 4052, 4053, 4074, 4073, 4493, 4494, 4515, 4514
3681, 4054, 4055, 4076, 4075, 4495, 4496, 4517, 4516
3682, 4055, 4056, 4077, 4076, 4496, 4497, 4518, 4517
3683, 4056, 4057, 4078, 4077, 4497, 4498, 4519, 4518
3684, 4057, 4058, 4079, 4078, 4498, 4499, 4520, 4519
3685, 4058, 4059, 4080, 4079, 4499, 4500, 4521, 4520
3686, 4059, 4060, 4081, 4080, 4500, 4501, 4522, 4521
3687, 4060, 4061, 4082, 4081, 4501, 4502, 4523, 4522
3688, 4061, 4062, 4083, 4082, 4502, 4503, 4524, 4523
3689, 4062, 4063, 4084, 4083, 4503, 4504, 4525, 4524
3690, 4063, 4064, 4085, 4084, 4504, 4505, 4526, 4525
3691, 4064, 4065, 4086, 4085, 4505, 4506, 4527, 4526
3692, 4065, 4066, 4087, 4086, 4506, 4507, 4528, 4527
3693, 4066, 4067, 4088, 4087, 4507, 4508, 4529, 4528
3694, 4067, 4068, 4089, 4088, 4508, 4509, 4530, 4529
3695, 4068, 4069, 4090, 4089, 4509, 4510, 4531, 4530
3696, 4069, 4070, 4091, 4090, 4510, 4511, 4532, 4531
3697, 4070, 4071, 4092, 4091, 4511, 4512, 4533, 4532
3698, 4071, 4072, 4093, 4092, 4512, 4513, 4534, 4533
3699, 4072, 4073, 4094, 4093, 4513, 4514, 4535, 4534
3700, 4073, 4074, 4095, 4094, 4514, 4515, 4536, 4535
3701, 4075, 4076, 4097, 4096, 4516, 4517, 4538, 4537
3702, 4076, 4077, 4098, 4097, 4517, 4518, 4539, 4538
3703, 4077, 4078, 4099, 4098, 4518, 4519, 4540, 4539
3704, 4078, 4079, 4100, 4099, 4519, 4520, 4541, 4540
3705, 4079, 4080, 4101, 4100, 4520, 4521, 4542, 4541
3706, 4080, 4081, 4102, 4101, 4521, 4522, 4543, 4542
3707, 4081, 4082, 4103, 4102, 4522, 4523, 4544, 4543
3708, 4082, 4083, 4104, 4103, 4523, 4524, 4545, 4544
3709, 4083, 4084, 4105, 4104, 4524, 4525, 4546, 4545
3710, 4084, 4085, 4106, 4105, 4525, 4526, 4547, 4546
3711, 4085, 4086, 4107, 4106, 4526, 4527, 4548, 4547
3712, 4086, 4087, 4108, 4107, 4527, 4528, 4549, 4548
3713, 4087, 4088, 4109, 4108, 4528, 4529, 4550, 4549
3714, 4088, 4089, 4110, 4109, 4529, 4530, 4551, 4550
3715, 4089, 4090, 4111, 4110, 4530, 4531, 4552, 4551
3716, 4090, 4091, 4112, 4111, 4531, 4532, 4553, 4552
3717, 4091, 4092, 4113, 4112, 4532, 4533, 4554, 4553
3718, 4092, 4093, 4114, 4113, 4533, 4534, 4555, 4554
3719, 4093, 4094, 4115, 4114, 4534, 4535, 4556, 4555
3720, 4094, 4095, 4116, 4115, 4535, 4536, 4557, 4556
3721, 4096, 4097, 4118, 4117, 4537, 4538, 4559, 4558
3722, 4097, 4098, 4119, 4118, 4538, 4539, 4560, 4559
3723, 4098, 4099, 4120, 4119, 4539, 4540, 4561, 4560
3724, 4099, 4100, 4121, 4120, 4540, 4541, 4562, 4561
3725, 4100, 4101, 4122, 4121, 4541, 4542, 4563, 4562
3726, 4101, 4102, 4123, 4122, 4542, 4543, 4564, 4563
3727, 4102, 4103, 4124, 4123, 4543, 4544, 4565, 4564
3728, 4103, 4104, 4125, 4124, 4544, 4545, 4566, 4565
3729, 4104, 4105, 4126, 4125, 4545, 4546, 4567, 4566
3730, 4105, 4106, 4127, 4126, 4546, 4547, 4568, 4567
3731, 4106, 4107, 4128, 4127, 4547, 4548, 4569, 4568
3732, 4107, 4108, 4129, 4128, 4548, 4549, 4570, 4569
3733, 4108, 4109, 4130, 4129, 4549, 4550, 4571, 4570
3734, 4109, 4110, 4131, 4130, 4550, 4551, 4572, 4571
3735, 4110, 4111, 4132, 4131, 4551, 4552, 4573, 4572
3736, 4111, 4112, 4133, 4132, 4552, 4553, 4574, 4573
3737, 4112, 4113, 4134, 4133, 4553, 4554, 4575, 4574
3738, 4113, 4114, 4135, 4134, 4554, 4555, 4576, 4575
3739, 4114, 4115, 4136, 4135, 4555, 4556, 4577, 4576
3740, 4115, 4116, 4137, 4136, 4556, 4557, 4578, 4577
3741, 4117, 4118, 4139, 4138, 4558, 4559, 4580, 4579
3742, 4118, 4119, 4140, 4139, 4559, 4560, 4581, 4580
3743, 4119, 4120, 4141, 4140, 4560, 4561, 4582, 4581
3744, 4120, 4121, 4142, 4141, 4561, 4562, 4583, 4582
3745, 4121, 4122, 4143, 4142, 4562, 4563, 4584, 4583
3746, 4122, 4123, 4144, 4143, 4563, 4564, 4585, 4584
3747, 4123, 4124, 4145, 4144, 4564, 4565, 4586, 4585
3748, 4124, 4125, 4146, 4145, 4565, 4566, 4587, 4586
3749, 4125, 4126, 4147, 4146, 4566, 4567, 4588, 4587
3750, 4126, 4127, 4148, 4147, 4567, 4568, 4589, 4588
3751, 4127, 4128, 4149, 4148, 4568, 4569, 4590, 4589
3752, 4128, 4129, 4150, 4149, 4569, 4570, 4591, 4590
3753, 4129, 4130, 4151, 4150, 4570, 4571, 4592, 4591
3754, 4130, 4131, 4152, 4151, 4571, 4572, 4593, 4592
3755, 4131, 4132, 4153, 4152, 4572, 4573, 4594, 4593
3756, 4132, 4133, 4154, 4153, 4573, 4574, 4595, 4594
3757, 4133, 4134, 4155, 4154, 4574, 4575, 4596, 4595
3758, 4134, 4135, 4156, 4155, 4575, 4576, 4597, 4596
3759, 4135, 4136, 4157, 4156, 4576, 4577, 4598, 4597
3760, 4136, 4137, 4158, 4157, 4577, 4578, 4599, 4598
3761, 4138, 4139, 4160, 4159, 4579, 4580, 4601, 4600
3762, 4139, 4140, 4161, 4160, 4580, 4581, 4602, 4601
3763, 4140, 4141, 4162, 4161, 4581, 4582, 4603, 4602
3764, 4141, 4142, 4163, 4162, 4582, 4583, 4604, 4603
3765, 4142, 4143, 4164, 4163, 4583, 4584, 4605, 4604
3766, 4143, 4144, 4165, 4164, 4584, 4585, 4606, 4605
3767, 4144, 4145, 4166, 4165, 4585, 4586, 4607, 4606
3768, 4145, 4146, 4167, 4166, 4586, 4587, 4608, 4607
3769, 4146, 4147, 4168, 4167, 4587, 4588, 4609, 4608
3770, 4147, 4148, 4169, 4168, 4588, 4589, 4610, 4609
3771, 4148, 4149, 4170, 4169, 4589, 4590, 4611, 4610
3772, 4149, 4150, 4171, 4170, 4590, 4591, 4612, 4611
3773, 4150, 4151, 4172, 4171, 4591, 4592, 4613, 4612
3774, 4151, 4152, 4173, 4172, 4592, 4593, 4614, 4613
3775, 4152, 4153, 4174, 4173, 4593, 4594, 4615, 4614
3776, 4153, 4154, 4175, 4174, 4594, 4595, 4616, 4615
3777, 4154, 4155, 4176, 4175, 4595, 4596, 4617, 4616
3778, 4155, 4156, 4177, 4176, 4596, 4597, 4618, 4617
3779, 4156, 4157, 4178, 4177, 4597, 4598, 4619, 4618
3780, 4157, 4158, 4179, 4178, 4598, 4599, 4620, 4619
3781, 4159, 4160, 4181, 4180, 4600, 4601, 4622, 4621
3782, 4160, 4161, 4182, 4181, 4601, 4602, 4623, 4622
3783, 4161, 4162, 4183, 4182, 4602, 4603, 4624, 4623
3784, 4162, 4163, 4184, 4183, 4603, 4604, 4625, 4624
3785, 4163, 4164, 4185, 4184, 4604, 4605, 4626, 4625
3786, 4164, 4165, 4186, 4185, 4605, 4606, 4627, 4626
3787, 4165, 4166, 4187, 4186, 4606, 4607, 4628, 4627
3788, 4166, 4167, 4188, 4187, 4607, 4608, 4629, 4628
3789, 4167, 4168, 4189, 4188, 4608, 4609, 4630, 4629
3790, 4168, 4169, 4190, 4189, 4609, 4610, 4631, 4630
3791, 4169, 4170, 4191, 4190, 4610, 4611, 4632, 4631
3792, 4170, 4171, 4192, 4191, 4611, 4612, 4633, 4632
3793, 4171, 4172, 4193, 4192, 4612, 4613, 4634, 4633
3794, 4172, 4173, 4194, 4193, 4613, 4614, 4635, 4634
3795, 4173, 4174, 4195, 4194, 4614, 4615, 4636, 4635
3796, 4174, 4175, 4196, 4195, 4615, 4616, 4637, 4636
3797, 4175, 4176, 4197, 4196, 4616, 4617, 4638, 4637
3798, 4176, 4177, 4198, 4197, 4617, 4618, 4639, 4638
3799, 4177, 4178, 4199, 4198, 4618, 4619, 4640, 4639
3800, 4178, 4179, 4200, 4199, 4619, 4620, 4641, 4640
3801, 4180, 4181, 4202, 4201, 4621, 4622, 4643, 4642
3802, 4181, 4182, 4203, 4202, 4622, 4623, 4644, 4643
3803, 4182, 4183, 4204, 4203, 4623, 4624, 4645, 4644
3804, 4183, 4184, 4205, 4204, 4624, 4625, 4646, 4645
3805, 4184, 4185, 4206, 4205, 4625, 4626, 4647, 4646
3806, 4185, 4186, 4207, 4206, 4626, 4627, 4648, 4647
3807, 4186, 4187, 4208, 4207, 4627, 4628, 4649, 4648
3808, 4187, 4188, 4209, 4208, 4628, 4629, 4650, 4649
3809, 4188, 4189, 4210, 4209, 4629, 4630, 4651, 4650
3810, 4189, 4190, 4211, 4210, 4630, 4631, 4652, 4651
3811, 4190, 4191, 4212, 4211, 4631, 4632, 4653, 4652
3812, 4191, 4192, 4213, 4212, 4632, 4633, 4654, 4653
3813, 4192, 4193, 4214, 4213, 4633, 4634, 4655, 4654
3814, 4193, 4194, 4215, 4214, 4634, 4635, 4656, 4655
3815, 4194, 4195, 4216, 4215, 4635, 4636, 4657, 4656
3816, 4195, 4196, 4217, 4216, 4636, 4637, 4658, 4657
3817, 4196, 4197, 4218, 4217, 4637, 4638, 4659, 4658
3818, 4197, 4198, 4219, 4218, 4638, 4639, 4660, 4659
3819, 4198, 4199, 4220, 4219, 4639, 4640, 4661, 4660
3820, 4199, 4200, 4221, 4220, 4640, 4641, 4662, 4661
3821, 4201, 4202, 4223, 4222, 4642, 4643, 4664, 4663
3822, 4202, 4203, 4224, 4223, 4643, 4644, 4665, 4664
3823, 4203, 4204, 4225, 4224, 4644, 4645, 4666, 4665
3824, 4204, 4205, 4226, 4225, 4645, 4646, 4667, 4666
3825, 4205, 4206, 4227, 4226, 4646, 4647, 4668, 4667
3826, 4206, 4207, 4228, 4227, 4647, 4648, 4669, 4668
3827, 4207, 4208, 4229, 4228, 4648, 4649, 4670, 4669
3828, 4208, 4209, 4230, 4229, 4649, 4650, 4671, 4670
3829, 4209, 4210, 4231, 4230, 4650, 4651, 4672, 4671
3830, 4210, 4211, 4232, 4231, 4651, 4652, 4673, 4672
3831, 4211, 4212, 4233, 4232, 4652, 4653, 4674, 4673
3832, 4212, 4213, 4234, 4233, 4653, 4654, 4675, 4674
3833, 4213, 4214, 4235, 4234, 4654, 4655, 4676, 4675
3834, 4214, 4215, 4236, 4235, 4655, 4656, 4677, 4676
3835, 4215, 4216, 4237, 4236, 4656, 4657, 4678, 4677
3836, 4216, 4217, 4238, 4237, 4657, 4658, 4679, 4678
3837, 4217, 4218, 4239, 4238, 4658, 4659, 4680, 4679
3838, 4218, 4219, 4240, 4239, 4659, 4660, 4681, 4680
3839, 4219, 4220, 4241, 4240, 4660, 4661, 4682, 4681
3840, 4220, 4221, 4242, 4241, 4661, 4662, 4683, 4682
3841, 4222, 4223, 4244, 4243, 4663, 4664, 4685, 4684
3842, 4223, 4224, 4245, 4244, 4664, 4665, 4686, 4685
3843, 4224, 4225, 4246, 4245, 4665, 4666, 4687, 4686
3844, 4225, 4226, 4247, 4246, 4666, 4667, 4688, 4687
3845, 4226, 4227, 4248, 4247, 4667, 4668, 4689, 4688
3846, 4227, 4228, 4249, 4248, 4668, 4669, 4690, 4689
3847, 4228, 4229, 4250, 4249, 4669, 4670, 4691, 4690
3848, 4229, 4230, 4251, 4250, 4670, 4671, 4692, 4691
3849, 4230, 4231, 4252, 4251, 4671, 4672, 4693, 4692
3850, 4231, 4232, 4253, 4252, 4672, 4673, 4694, 4693
3851, 4232, 4233, 4254, 4253, 4673, 4674, 4695, 4694
3852, 4233, 4234, 4255, 4254, 4674, 4675, 4696, 4695
3853, 4234, 4235, 4256, 4255, 4675, 4676, 4697, 4696
3854, 4235, 4236, 4257, 4256, 4676, 4677, 4698, 4697
3855, 4236, 4237, 4258, 4257, 4677, 4678, 4699, 4698
3856, 4237, 4238, 4259, 4258, 4678, 4679, 4700, 4699
3857, 4238, 4239, 4260, 4259, 4679, 4680, 4701, 4700
3858, 4239, 4240, 4261, 4260, 4680, 4681, 4702, 4701
3859, 4240, 4241, 4262, 4261, 4681, 4682, 4703, 4702
3860, 4241, 4242, 4263, 4262, 4682, 4683, 4704, 4703
3861, 4243, 4244, 4265, 4264, 4684, 4685, 4706, 4705
3862, 4244, 4245, 4266, 4265, 4685, 4686, 4707, 4706
3863, 4245, 4246, 4267, 4266, 4686, 4687, 4708, 4707
3864, 4246, 4247, 4268, 4267, 4687, 4688, 4709, 4708
3865, 4247, 4248, 4269, 4268, 4688, 4689, 4710, 4709
3866, 4248, 4249, 4270, 4269, 4689, 4690, 4711, 4710
3867, 4249, 4250, 4271, 4270, 4690, 4691, 4712, 4711
3868, 4250, 4251, 4272, 4271, 4691, 4692, 4713, 4712
3869, 4251, 4252, 4273, 4272, 4692, 4693, 4714, 4713
3870, 4252, 4253, 4274, 4273, 4693, 4694, 4715, 4714
3871, 4253, 4254, 4275, 4274, 4694, 4695, 4716, 4715
3872, 4254, 4255, 4276, 4275, 4695, 4696, 4717, 4716
3873, 4255, 4256, 4277, 4276, 4696, 4697, 4718, 4717
3874, 4256, 4257, 4278, 4277, 4697, 4698, 4719, 4718
3875, 4257, 4258, 4279, 4278, 4698, 4699, 4720, 4719
3876, 4258, 4259, 4280, 4279, 4699, 4700, 4721, 4720
3877, 4259, 4260, 4281, 4280, 4700, 4701, 4722, 4721
3878, 4260, 4261, 4282, 4281, 4701, 4702, 4723, 4722
3879, 4261, 4262, 4283, 4282, 4702, 4703, 4724, 4723
3880, 4262, 4263, 4284, 4283, 4703, 4704, 4725, 4724
3881, 4264, 4265, 4286, 4285, 4705, 4706, 4727, 4726
3882, 4265, 4266, 4287, 4286, 4706, 4707, 4728, 4727
3883, 4266, 4267, 4288, 4287, 4707, 4708, 4729, 4728
3884, 4267, 4268, 4289, 4288, 4708, 4709, 4730, 4729
3885, 4268, 4269, 4290, 4289, 4709, 4710, 4731, 4730
3886, 4269, 4270, 4291, 4290, 4710, 4711, 4732, 4731
3887, 4270, 4271, 4292, 4291, 4711, 4712, 4733, 4732
3888, 4271, 4272, 4293, 4292, 4712, 4713, 4734, 4733
3889, 4272, 4273, 4294, 4293, 4713, 4714, 4735, 4734
3890, 4273, 4274, 4295, 4294, 4714, 4715, 4736, 4735
3891, 4274, 4275, 4296, 4295, 4715, 4716, 4737, 4736
3892, 4275, 4276, 4297, 4296, 4716, 4717, 4738, 4737
3893, 4276, 4277, 4298, 4297, 4717, 4718, 4739, 4738
3894, 4277, 4278, 4299, 4298, 4718, 4719, 4740, 4739
3895, 4278, 4279, 4300, 4299, 4719, 4720, 4741, 4740
3896, 4279, 4280, 4301, 4300, 4720, 4721, 4742, 4741
3897, 4280, 4281, 4302, 4301, 4721, 4722, 4743, 4742
3898, 4281, 4282, 4303, 4302, 4722, 4723, 4744, 4743
3899, 4282, 4283, 4304, 4303, 4723, 4724, 4745, 4744
3900, 4283, 4284, 4305, 4304, 4724, 4725, 4746, 4745
3901, 4285, 4286, 4307, 4306, 4726, 4727, 4748, 4747
3902, 4286, 4287, 4308, 4307, 4727, 4728, 4749, 4748
3903, 4287, 4288, 4309, 4308, 4728, 4729, 4750, 4749
3904, 4288, 4289, 4310, 4309, 4729, 4730, 4751, 4750
3905, 4289, 4290, 4311, 4310, 4730, 4731, 4752, 4751
3906, 4290, 4291, 4312, 4311, 4731, 4732, 4753, 4752
3907, 4291, 4292, 4313, 4312, 4732, 4733, 4754, 4753
3908, 4292, 4293, 4314, 4313, 4733, 4734, 4755, 4754
3909, 4293, 4294, 4315, 4314, 4734, 4735, 4756, 4755
3910, 4294, 4295, 4316, 4315, 4735, 4736, 4757, 4756
3911, 4295, 4296, 4317, 4316, 4736, 4737, 4758, 4757
3912, 4296, 4297, 4318, 4317, 4737, 4738, 4759, 4758
3913, 4297, 4298, 4319, 4318, 4738, 4739, 4760, 4759
3914, 4298, 4299, 4320, 4319, 4739, 4740, 4761, 4760
3915, 4299, 4300, 4321, 4320, 4740, 4741, 4762, 4761
3916, 4300, 4301, 4322, 4321, 4741, 4742, 4763, 4762
3917, 4301, 4302, 4323, 4322, 4742, 4743, 4764, 4763
3918, 4302, 4303, 4324, 4323, 4743, 4744, 4765, 4764
3919, 4303, 4304, 4325, 4324, 4744, 4745, 4766, 4765
3920, 4304, 4305, 4326, 4325, 4745, 4746, 4767, 4766
3921, 4306, 4307, 4328, 4327, 4747, 4748, 4769, 4768
3922, 4307, 4308, 4329, 4328, 4748, 4749, 4770, 4769
3923, 4308, 4309, 4330, 4329, 4749, 4750, 4771, 4770
3924, 4309, 4310, 4331, 4330, 4750, 4751, 4772, 4771
3925, 4310, 4311, 4332, 4331, 4751, 4752, 4773, 4772
3926, 4311, 4312, 4333, 4332, 4752, 4753, 4774, 4773
3927, 4312, 4313, 4334, 4333, 4753, 4754, 4775, 4774
3928, 4313, 4314, 4335, 4334, 4754, 4755, 4776, 4775
3929, 4314, 4315, 4336, 4335, 4755, 4756, 4777, 4776
3930, 4315, 4316, 4337, 4336, 4756, 4757, 4778, 4777
3931, 4316, 4317, 4338, 4337, 4757, 4758, 4779, 4778
3932, 4317, 4318, 4339, 4338, 4758, 4759, 4780, 4779
3933, 4318, 4319, 4340, 4339, 4759, 4760, 4781, 4780
3934, 4319, 4320, 4341, 4340, 4760, 4761, 4782, 4781
3935, 4320, 4321, 4342, 4341, 4761, 4762, 4783, 4782
3936, 4321, 4322, 4343, 4342, 4762, 4763, 4784, 4783
3937, 4322, 4323, 4344, 4343, 4763, 4764, 4785, 4784
3938, 4323, 4324, 4345, 4344, 4764, 4765, 4786, 4785
3939, 4324, 4325, 4346, 4345, 4765, 4766, 4787, 4786
3940, 4325, 4326, 4347, 4346, 4766, 4767, 4788, 4787
3941, 4327, 4328, 4349, 4348, 4768, 4769, 4790, 4789
3942, 4328, 4329, 4350, 4349, 4769, 4770, 4791, 4790
3943, 4329, 4330, 4351, 4350, 4770, 4771, 4792, 4791
3944, 4330, 4331, 4352, 4351, 4771, 4772, 4793, 4792
3945, 4331, 4332, 4353, 4352, 4772, 4773, 4794, 4793
3946, 4332, 4333, 4354, 4353, 4773, 4774, 4795, 4794
3947, 4333, 4334, 4355, 4354, 4774, 4775, 4796, 4795
3948, 4334, 4335, 4356, 4355, 4775, 4776, 4797, 4796
3949, 4335, 4336, 4357, 4356, 4776, 4777, 4798, 4797
3950, 4336, 4337, 4358, 4357, 4777, 4778, 4799, 4798
3951, 4337, 4338, 4359, 4358, 4778, 4779, 4800, 4799
3952, 4338, 4339, 4360, 4359, 4779, 4780, 4801, 4800
3953, 4339, 4340, 4361, 4360, 4780, 4781, 4802, 4801
3954, 4340, 4341, 4362, 4361, 4781, 4782, 4803, 4802
3955, 4341, 4342, 4363, 4362, 4782, 4783, 4804, 4803
3956, 4342, 4343, 4364, 4363, 4783, 4784, 4805, 4804
3957, 4343, 4344, 4365, 4364, 4784, 4785, 4806, 4805
3958, 4344, 4345, 4366, 4365, 4785, 4786, 4807, 4806
3959, 4345, 4346, 4367, 4366, 4786, 4787, 4808, 4807
3960, 4346, 4347, 4368, 4367, 4787, 4788, 4809, 4808
3961, 4348, 4349, 4370, 4369, 4789, 4790, 4811, 4810
3962, 4349, 4350, 4371, 4370, 4790, 4791, 4812, 4811
3963, 4350, 4351, 4372, 4371, 4791, 4792, 4813, 4812
3964, 4351, 4352, 4373, 4372, 4792, 4793, 4814, 4813
3965, 4352, 4353, 4374, 4373, 4793, 4794, 4815, 4814
3966, 4353, 4354, 4375, 4374, 4794, 4795, 4816, 4815
3967, 4354, 4355, 4376, 4375, 4795, 4796, 4817, 4816
3968, 4355, 4356, 4377, 4376, 4796, 4797, 4818, 4817
3969, 4356, 4357, 4378, 4377, 4797, 4798, 4819, 4818
3970, 4357, 4358, 4379, 4378, 4798, 4799, 4820, 4819
3971, 4358, 4359, 4380, 4379, 4799, 4800, 4821, 4820
3972, 4359, 4360, 4381, 4380, 4800, 4801, 4822, 4821
3973, 4360, 4361, 4382, 4381, 4801, 4802, 4823, 4822
3974, 4361, 4362, 4383, 4382, 4802, 4803, 4824, 4823
3975, 4362, 4363, 4384, 4383, 4803, 4804, 4825, 4824
3976, 4363, 4364, 4385, 4384, 4804, 4805, 4826, 4825
3977, 4364, 4365, 4386, 4385, 4805, 4806, 4827, 4826
3978, 4365, 4366, 4387, 4386, 4806, 4807, 4828, 4827
3979, 4366, 4367, 4388, 4387, 4807, 4808, 4829, 4828
3980, 4367, 4368, 4389, 4388, 4808, 4809, 4830, 4829
3981, 4369, 4370, 4391, 4390, 4810, 4811, 4832, 4831
3982, 4370, 4371, 4392, 4391, 4811, 4812, 4833, 4832
3983, 4371, 4372, 4393, 4392, 4812, 4813, 4834, 4833
3984, 4372, 4373, 4394, 4393, 4813, 4814, 4835, 4834
3985, 4373, 4374, 4395, 4394, 4814, 4815, 4836, 4835
3986, 4374, 4375, 4396, 4395, 4815, 4816, 4837, 4836
3987, 4375, 4376, 4397, 4396, 4816, 4817, 4838, 4837
3988, 4376, 4377, 4398, 4397, 4817, 4818, 4839, 4838
3989, 4377, 4378, 4399, 4398, 4818, 4819, 4840, 4839
3990, 4378, 4379, 4400, 4399, 4819, 4820, 4841, 4840
3991, 4379, 4380, 4401, 4400, 4820, 4821, 4842, 4841
3992, 4380, 4381, 4402, 4401, 4821, 4822, 4843, 4842
3993, 4381, 4382, 4403, 4402, 4822, 4823, 4844, 4843
3994, 4382, 4383, 4404, 4403, 4823, 4824, 4845, 4844
3995, 4383, 4384, 4405, 4404, 4824, 4825, 4846, 4845
3996, 4384, 4385, 4406, 4405, 4825, 4826, 4847, 4846
3997, 4385, 4386, 4407, 4406, 4826, 4827, 4848, 4847
3998, 4386, 4387, 4408, 4407, 4827, 4828, 4849, 4848
3999, 4387, 4388, 4409, 4408, 4828, 4829, 4850, 4849
4000, 4388, 4389, 4410, 4409, 4829, 4830, 4851, 4850
4001, 4411, 4412, 4433, 4432, 4852, 4853, 4874, 4873
4002, 4412, 4413, 4434, 4433, 4853, 4854, 4875, 4874
4003, 4413, 4414, 4435, 4434, 4854, 4855, 4876, 4875
4004, 4414, 4415, 4436, 4435, 4855, 4856, 4877, 4876
4005, 4415, 4416, 4437, 4436, 4856, 4857, 4878, 4877
4006, 4416, 4417, 4438, 4437, 4857, 4858, 4879, 4878
4007, 4417, 4418, 4439, 4438, 4858, 4859, 4880, 4879
4008, 4418, 4419, 4440, 4439, 4859, 4860, 4881, 4880
4009, 4419, 4420, 4441, 4440, 4860, 4861, 4882, 4881
4010, 4420, 4421, 4442, 4441, 4861, 4862, 4883, 4882
4011, 4421, 4422, 4443, 4442, 4862, 4863, 4884, 4883
4012, 4422, 4423, 4444, 4443, 4863, 4864, 4885, 4884
4013, 4423, 4424, 4445, 4444, 4864, 4865, 4886, 4885
4014, 4424, 4425, 4446, 4445, 4865, 4866, 4887, 4886
4015, 4425, 4426, 4447, 4446, 4866, 4867, 4888, 4887
4016, 4426, 4427, 4448, 4447, 4867, 4868, 4889, 4888
4017, 4427, 4428, 4449, 4448, 4868, 4869, 4890, 4889
4018, 4428, 4429, 4450, 4449, 4869, 4870, 4891, 4890
4019, 4429, 4430, 4451, 4450, 4870, 4871, 4892, 4891
4020, 4430, 4431, 4452, 4451, 4871, 4872, 4893, 4892
4021, 4432, 4433, 4454, 4453, 4873, 4874, 4895, 4894
4022, 4433, 4434, 4455, 4454, 4874, 4875, 4896, 4895
4023, 4434, 4435, 4456, 4455, 4875, 4876, 4897, 4896
4024, 4435, 4436, 4457, 4456, 4876, 4877, 4898, 4897
4025, 4436, 4437, 4458, 4457, 4877, 4878, 4899, 4898
4026, 4437, 4438, 4459, 4458, 4878, 4879, 4900, 4899
4027, 4438, 4439, 4460, 4459, 4879, 4880, 4901, 4900
4028, 4439, 4440, 4461, 4460, 4880, 4881, 4902, 4901
4029, 4440, 4441, 4462, 4461, 4881, 4882, 4903, 4902
4030, 4441, 4442, 4463, 4462, 4882, 4883, 4904, 4903
4031, 4442, 4443, 4464, 4463, 4883, 4884, 4905, 4904
4032, 4443, 4444, 4465, 4464, 4884, 4885, 4906, 4905
4033, 4444, 4445, 4466, 4465, 4885, 4886, 4907, 4906
4034, 4445, 4446, 4467, 4466, 4886, 4887, 4908, 4907
4035, 4446, 4447, 4468, 4467, 4887, 4888, 4909, 4908
4036, 4447, 4448, 4469, 4468, 4888, 4889, 4910, 4909
4037, 4448, 4449, 4470, 4469, 4889, 4890, 4911, 4910
4038, 4449, 4450, 4471, 4470, 4890, 4891, 4912, 4911
4039, 4450, 4451, 4472, 4471, 4891, 4892, 4913, 4912
4040, 4451, 4452, 4473, 4472, 4892, 4893, 4914, 4913
4041, 4453, 4454, 4475, 4474, 4894, 4895, 4916, 4915
4042, 4454, 4455, 4476, 4475, 4895, 4896, 4917, 4916
4043, 4455, 4456, 4477, 4476, 4896, 4897, 4918, 4917
4044, 4456, 4457, 4478, 4477, 4897, 4898, 4919, 4918
4045, 4457, 4458, 4479, 4478, 4898, 4899, 4920, 4919
4046, 4458, 4459, 4480, 4479, 4899, 4900, 4921, 4920
4047, 4459, 4460, 4481, 4480, 4900, 4901, 4922, 4921
4048, 4460, 4461, 4482, 4481, 4901, 4902, 4923, 4922
4049, 4461, 4462, 4483, 4482, 4902, 4903, 4924, 4923
4050, 4462, 4463, 4484, 4483, 4903, 4904, 4925, 4924
4051, 4463, 4464, 4485, 4484, 4904, 4905, 4926, 4925
4052, 4464, 4465, 4486, 4485, 4905, 4906, 4927, 4926
4053, 4465, 4466, 4487, 4486, 4906, 4907, 4928, 4927
4054, 4466, 4467, 4488, 4487, 4907, 4908, 4929, 4928
4055, 4467, 4468, 4489, 4488, 4908, 4909, 4930, 4929
4056, 4468, 4469, 4490, 4489, 4909, 4910, 4931, 4930
4057, 4469, 4470, 4491, 4490, 4910, 4911, 4932, 4931
4058, 4470, 4471, 4492, 4491, 4911, 4912, 4933, 4932
4059, 4471, 4472, 4493, 4492, 4912, 4913, 4934, 4933
4060, 4472, 4473, 4494, 4493, 4913, 4914, 4935, 4934
4061, 4474, 4475, 4496, 4495, 4915, 4916, 4937, 4936
4062, 4475, 4476, 4497, 4496, 4916, 4917, 4938, 4937
4063, 4476, 4477, 4498, 4497, 4917, 4918, 4939, 4938
4064, 4477, 4478, 4499, 4498, 4918, 4919, 4940, 4939
4065, 4478, 4479, 4500, 4499, 4919, 4920, 4941, 4940
4066, 4479, 4480, 4501, 4500, 4920, 4921, 4942, 4941
4067, 4480, 4481, 4502, 4501, 4921, 4922, 4943, 4942
4068, 4481, 4482, 4503, 4502, 4922, 4923, 4944, 4943
4069, 4482, 4483, 4504, 4503, 4923, 4924, 4945, 4944
4070, 4483, 4484, 4505, 4504, 4924, 4925, 4946, 4945
4071, 4484, 4485, 4506, 4505, 4925, 4926, 4947, 4946
4072, 4485, 4486, 4507, 4506, 4926, 4927, 4948, 4947
4073, 4486, 4487, 4508, 4507, 4927, 4928, 4949, 4948
4074, 4487, 4488, 4509, 4508, 4928, 4929, 4950, 4949
4075, 4488, 4489, 4510, 4509, 4929, 4930, 4951, 4950
4076, 4489, 4490, 4511, 4510, 4930, 4931, 4952, 4951
4077, 4490, 4491, 4512, 4511, 4931, 4932, 4953, 4952
4078, 4491, 4492, 4513, 4512, 4932, 4933, 4954, 4953
4079, 4492, 4493, 4514, 4513, 4933, 4934, 4955, 4954
4080, 4493, 4494, 4515, 4514, 4934, 4935, 4956, 4955
4081, 4495, 4496, 4517, 4516, 4936, 4937, 4958, 4957
4082, 4496, 4497, 4518, 4517, 4937, 4938, 4959, 4958
4083, 4497, 4498, 4519, 4518, 4938, 4939, 4960, 4959
4084, 4498, 4499, 4520, 4519, 4939, 4940, 4961, 4960
4085, 4499, 4500, 4521, 4520, 4940, 4941, 4962, 4961
4086, 4500, 4501, 4522, 4521, 4941, 4942, 4963, 4962
4087, 4501, 4502, 4523, 4522, 4942, 4943, 4964, 4963
4088, 4502, 4503, 4524, 4523, 4943, 4944, 4965, 4964
4089, 4503, 4504, 4525, 4524, 4944, 4945, 4966, 4965
4090, 4504, 4505, 4526, 4525, 4945, 4946, 4967, 4966
4091, 4505, 4506, 4527, 4526, 4946, 4947, 4968, 4967
4092, 4506, 4507, 4528, 4527, 4947, 4948, 4969, 4968
4093, 4507, 4508, 4529, 4528, 4948, 4949, 4970, 4969
4094, 4508, 4509, 4530, 4529, 4949, 4950, 4971, 4970
4095, 4509, 4510, 4531, 4530, 4950, 4951, 4972, 4971
4096, 4510, 4511, 4532, 4531, 4951, 4952, 4973, 4972
4097, 4511, 4512, 4533, 4532, 4952, 4953, 4974, 4973
4098, 4512, 4513, 4534, 4533, 4953, 4954, 4975, 4974
4099, 4513, 4514, 4535, 4534, 4954, 4955, 4976, 4975
4100, 4514, 4515, 4536, 4535, 4955, 4956, 4977, 4976
4101, 4516, 4517, 4538, 4537, 4957, 4958, 4979, 4978
4102, 4517, 4518, 4539, 4538, 4958, 4959, 4980, 4979
4103, 4518, 4519, 4540, 4539, 4959, 4960, 4981, 4980
4104, 4519, 4520, 4541, 4540, 4960, 4961, 4982, 4981
4105, 4520, 4521, 4542, 4541, 4961, 4962, 4983, 4982
4106, 4521, 4522, 4543, 4542, 4962, 4963, 4984, 4983
4107, 4522, 4523, 4544, 4543, 4963, 4964, 4985, 4984
4108, 4523, 4524, 4545, 4544, 4964, 4965, 4986, 4985
4109, 4524, 4525, 4546, 4545, 4965, 4966, 4987, 4986
4110, 4525, 4526, 4547, 4546, 4966, 4967, 4988, 4987
4111, 4526, 4527, 4548, 4547, 4967, 4968, 4989, 4988
4112, 4527, 4528, 4549, 4548, 4968, 4969, 4990, 4989
4113, 4528, 4529, 4550, 4549, 4969, 4970, 4991, 4990
4114, 4529, 4530, 4551, 4550, 4970, 4971, 4992, 4991
4115, 4530, 4531, 4552, 4551, 4971, 4972, 4993, 4992
4116, 4531, 4532, 4553, 4552, 4972, 4973, 4994, 4993
4117, 4532, 4533, 4554, 4553, 4973, 4974, 4995, 4994
4118, 4533, 4534, 4555, 4554, 4974, 4975, 4996, 4995
4119, 4534, 4535, 4556, 4555, 4975, 4976, 4997, 4996
4120, 4535, 4536, 4557, 4556, 4976, 4977, 4998, 4997
4121, 4537, 4538, 4559, 4558, 4978, 4979, 5000, 4999
4122, 4538, 4539, 4560, 4559, 4979, 4980, 5001, 5000
4123, 4539, 4540, 4561, 4560, 4980, 4981, 5002, 5001
4124, 4540, 4541, 4562, 4561, 4981, 4982, 5003, 5002
4125, 4541, 4542, 4563, 4562, 4982, 4983, 5004, 5003
4126, 4542, 4543, 4564, 4563, 4983, 4984, 5005, 5004
4127, 4543, 4544, 4565, 4564, 4984, 4985, 5006, 5005
4128, 4544, 4545, 4566, 4565, 4985, 4986, 5007, 5006
4129, 4545, 4546, 4567, 4566, 4986, 4987, 5008, 5007
4130, 4546, 4547, 4568, 4567, 4987, 4988, 5009, 5008
4131, 4547, 4548, 4569, 4568, 4988, 4989, 5010, 5009
4132, 4548, 4549, 4570, 4569, 4989, 4990, 5011, 5010
4133, 4549, 4550, 4571, 4570, 4990, 4991, 5012, 5011
4134, 4550, 4551, 4572, 4571, 4991, 4992, 5013, 5012
4135, 4551, 4552, 4573, 4572, 4992, 4993, 5014, 5013
4136, 4552, 4553, 4574, 4573, 4993, 4994, 5015, 5014
4137, 4553, 4554, 4575, 4574, 4994, 4995, 5016, 5015
4138, 4554, 4555, 4576, 4575, 4995, 4996, 5017, 5016
4139, 4555, 4556, 4577, 4576, 4996, 4997, 5018, 5017
4140, 4556, 4557, 4578, 4577, 4997, 4998, 5019, 5018
4141, 4558, 4559, 4580, 4579, 4999, 5000, 5021, 5020
4142, 4559, 4560, 4581, 4580, 5000, 5001, 5022, 5021
4143, 4560, 4561, 4582, 4581, 5001, 5002, 5023, 5022
4144, 4561, 4562, 4583, 4582, 5002, 5003, 5024, 5023
4145, 4562, 4563, 4584, 4583, 5003, 5004, 5025, 5024
4146, 4563, 4564, 4585, 4584, 5004, 5005, 5026, 5025
4147, 4564, 4565, 4586, 4585, 5005, 5006, 5027, 5026
4148, 4565, 4566, 4587, 4586, 5006, 5007, 5028, 5027
4149, 4566, 4567, 4588, 4587, 5007, 5008, 5029, 5028
4150, 4567, 4568, 4589, 4588, 5008, 5009, 5030, 5029
4151, 4568, 4569, 4590, 4589, 5009, 5010, 5031, 5030
4152, 4569, 4570, 4591, 4590, 5010, 5011, 5032, 5031
4153, 4570, 4571, 4592, 4591, 5011, 5012, 5033, 5032
4154, 4571, 4572, 4593, 4592, 5012, 5013, 5034, 5033
4155, 4572, 4573, 4594, 4593, 5013, 5014, 5035, 5034
4156, 4573, 4574, 4595, 4594, 5014, 5015, 5036, 5035
4157, 4574, 4575, 4596, 4595, 5015, 5016, 5037, 5036
4158, 4575, 4576, 4597, 4596, 5016, 5017, 5038, 5037
4159, 4576, 4577, 4598, 4597, 5017, 5018, 5039, 5038
4160, 4577, 4578, 4599, 4598, 5018, 5019, 5040, 5039
4161, 4579, 4580, 4601, 4600, 5020, 5021, 5042, 5041
4162, 4580, 4581, 4602, 4601, 5021, 5022, 5043, 5042
4163, 4581, 4582, 4603, 4602, 5022, 5023, 5044, 5043
4164, 4582, 4583, 4604, 4603, 5023, 5024, 5045, 5044
4165, 4583, 4584, 4605, 4604, 5024, 5025, 5046, 5045
4166, 4584, 4585, 4606, 4605, 5025, 5026, 5047, 5046
4167, 4585, 4586, 4607, 4606, 5026, 5027, 5048, 5047
4168, 4586, 4587, 4608, 4607, 5027, 5028, 5049, 5048
4169, 4587, 4588, 4609, 4608, 5028, 5029, 5050, 5049
4170, 4588, 4589, 4610, 4609, 5029, 5030, 5051, 5050
4171, 4589, 4590, 4611, 4610, 5030, 5031, 5052, 5051
4172, 4590, 4591, 4612, 4611, 5031, 5032, 5053, 5052
4173, 4591, 4592, 4613, 4612, 5032, 5033, 5054, 5053
4174, 4592, 4593, 4614, 4613, 5033, 5034, 5055, 5054
4175, 4593, 4594, 4615, 4614, 5034, 5035, 5056, 5055
4176, 4594, 4595, 4616, 4615, 5035, 5036, 5057, 5056
4177, 4595, 4596, 4617, 4616, 5036, 5037, 5058, 5057
4178, 4596, 4597, 4618, 4617, 5037, 5038, 5059, 5058
4179, 4597, 4598, 4619, 4618, 5038, 5039, 5060, 5059
4180, 4598, 4599, 4620, 4619, 5039, 5040, 5061, 5060
4181, 4600, 4601, 4622, 4621, 5041, 5042, 5063, 5062
4182, 4601, 4602, 4623, 4622, 5042, 5043, 5064, 5063
4183, 4602, 4603, 4624, 4623, 5043, 5044, 5065, 5064
4184, 4603, 4604, 4625, 4624, 5044, 5045, 5066, 5065
4185, 4604, 4605, 4626, 4625, 5045, 5046, 5067, 5066
4186, 4605, 4606, 4627, 4626, 5046, 5047, 5068, 5067
4187, 4606, 4607, 4628, 4627, 5047, 5048, 5069, 5068
4188, 4607, 4608, 4629, 4628, 5048, 5049, 5070, 5069
4189, 4608, 4609, 4630, 4629, 5049, 5050, 5071, 5070
4190, 4609, 4610, 4631, 4630, 5050, 5051, 5072, 5071
4191, 4610, 4611, 4632, 4631, 5051, 5052, 5073, 5072
4192, 4611, 4612, 4633, 4632, 5052, 5053, 5074, 5073
4193, 4612, 4613, 4634, 4633, 5053, 5054, 5075, 5074
4194, 4613, 4614, 4635, 4634, 5054, 5055, 5076, 5075
4195, 4614, 4615, 4636, 4635, 5055, 5056, 5077, 5076
4196, 4615, 4616, 4637, 4636, 5056, 5057, 5078, 5077
4197, 4616, 4617, 4638, 4637, 5057, 5058, 5079, 5078
4198, 4617, 4618, 4639, 4638, 5058, 5059, 5080, 5079
4199, 4618, 4619, 4640, 4639, 5059, 5060, 5081, 5080
4200, 4619, 4620, 4641, 4640, 5060, 5061, 5082, 5081
4201, 4621, 4622, 4643, 4642, 5062, 5063, 5084, 5083
4202, 4622, 4623, 4644, 4643, 5063, 5064, 5085, 5084
4203, 4623, 4624, 4645, 4644, 5064, 5065, 5086, 5085
4204, 4624, 4625, 4646, 4645, 5065, 5066, 5087, 5086
4205, 4625, 4626, 4647, 4646, 5066, 5067, 5088, 5087
4206, 4626, 4627, 4648, 4647, 5067, 5068, 5089, 5088
4207, 4627, 4628, 4649, 4648, 5068, 5069, 5090, 5089
4208, 4628, 4629, 4650, 4649, 5069, 5070, 5091, 5090
4209, 4629, 4630, 4651, 4650, 5070, 5071, 5092, 5091
4210, 4630, 4631, 4652, 4651, 5071, 5072, 5093, 5092
4211, 4631, 4632, 4653, 4652, 5072, 5073, 5094, 5093
4212, 4632, 4633, 4654, 4653, 5073, 5074, 5095, 5094
4213, 4633, 4634, 4655, 4654, 5074, 5075, 5096, 5095
4214, 4634, 4635, 4656, 4655, 5075, 5076, 5097, 5096
4215, 4635, 4636, 4657, 4656, 5076, 5077, 5098, 5097
4216, 4636, 4637, 4658, 4657, 5077, 5078, 5099, 5098
4217, 4637, 4638, 4659, 4658, 5078, 5079, 5100, 5099
4218, 4638, 4639, 4660, 4659, 5079, 5080, 5101, 5100
4219, 4639, 4640, 4661, 4660, 5080, 5081, 5102, 5101
4220, 4640, 4641, 4662, 4661, 5081, 5082, 5103, 5102
4221, 4642, 4643, 4664, 4663, 5083, 5084, 5105, 5104
4222, 4643, 4644, 4665, 4664, 5084, 5085, 5106, 5105
4223, 4644, 4645, 4666, 4665, 5085, 5086, 5107, 5106
4224, 4645, 4646, 4667, 4666, 5086, 5087, 5108, 5107
4225, 4646, 4647, 4668, 4667, 5087, 5088, 5109, 5108
4226, 4647, 4648, 4669, 4668, 5088, 5089, 5110, 5109
4227, 4648, 4649, 4670, 4669, 5089, 5090, 5111, 5110
4228, 4649, 4650, 4671, 4670, 5090, 5091, 5112, 5111
4229, 4650, 4651, 4672, 4671, 5091, 5092, 5113, 5112
4230, 4651, 4652, 4673, 4672, 5092, 5093, 5114, 5113
4231, 4652, 4653, 4674, 4673, 5093, 5094, 5115, 5114
4232, 4653, 4654, 4675, 4674, 5094, 5095, 5116, 5115
4233, 4654, 4655, 4676, 4675, 5095, 5096, 5117, 5116
4234, 4655, 4656, 4677, 4676, 5096, 5097, 5118, 5117
4235, 4656, 4657, 4678, 4677, 5097, 5098, 5119, 5118
4236, 4657, 4658, 4679, 4678, 5098, 5099, 5120, 5119
4237, 4658, 4659, 4680, 4679, 5099, 5100, 5121, 5120
4238, 4659, 4660, 4681, 4680, 5100, 5101, 5122, 5121
4239, 4660, 4661, 4682, 4681, 5101, 5102, 5123, 5122
4240, 4661, 4662, 4683, 4682, 5102, 5103, 5124, 5123
4241, 4663, 4664, 4685, 4684, 5104, 5105, 5126, 5125
4242, 4664, 4665, 4686, 4685, 5105, 5106, 5127, 5126
4243, 4665, 4666, 4687, 4686, 5106, 5107, 5128, 5127
4244, 4666, 4667, 4688, 4687, 5107, 5108, 5129, 5128
4245, 4667, 4668, 4689, 4688, 5108, 5109, 5130, 5129
4246, 4668, 4669, 4690, 4689, 5109, 5110, 5131, 5130
4247, 4669, 4670, 4691, 4690, 5110, 5111, 5132, 5131
4248, 4670, 4671, 4692, 4691, 5111, 5112, 5133, 5132
4249, 4671, 4672, 4693, 4692, 5112, 5113, 5134, 5133
4250, 4672, 4673, 4694, 4693, 5113, 5114, 5135, 5134
4251, 4673, 4674, 4695, 4694, 5114, 5115, 5136, 5135
4252, 4674, 4675, 4696, 4695, 5115, 5116, 5137, 5136
4253, 4675, 4676, 4697, 4696, 5116, 5117, 5138, 5137
4254, 4676, 4677, 4698, 4697, 5117, 5118, 5139, 5138
4255, 4677, 4678, 4699, 4698, 5118, 5119, 5140, 5139
4256, 4678, 4679, 4700, 4699, 5119, 5120, 5141, 5140
4257, 4679, 4680, 4701, 4700, 5120, 5121, 5142, 5141
4258, 4680, 4681, 4702, 4701, 5121, 5122, 5143, 5142
4259, 4681, 4682, 4703, 4702, 5122, 5123, 5144, 5143
4260, 4682, 4683, 4704, 4703, 5123, 5124, 5145, 5144
4261, 4684, 4685, 4706, 4705, 5125, 5126, 5147, 5146
4262, 4685, 4686, 4707, 4706, 5126, 5127, 5148, 5147
4263, 4686, 4687, 4708, 4707, 5127, 5128, 5149, 5148
4264, 4687, 4688, 4709, 4708, 5128, 5129, 5150, 5149
4265, 4688, 4689, 4710, 4709, 5129, 5130, 5151, 5150
4266, 4689, 4690, 4711, 4710, 5130, 5131, 5152, 5151
4267, 4690, 4691, 4712, 4711, 5131, 5132, 5153, 5152
4268, 4691, 4692, 4713, 4712, 5132, 5133, 5154, 5153
4269, 4692, 4693, 4714, 4713, 5133, 5134, 5155, 5154
4270, 4693, 4694, 4715, 4714, 5134, 5135, 5156, 5155
4271, 4694, 4695, 4716, 4715, 5135, 5136, 5157, 5156
4272, 4695, 4696, 4717, 4716, 5136, 5137, 5158, 5157
4273, 4696, 4697, 4718, 4717, 5137, 5138, 5159, 5158
4274, 4697, 4698, 4719, 4718, 5138, 5139, 5160, 5159
4275, 4698, 4699, 4720, 4719, 5139, 5140, 5161, 5160
4276, 4699, 4700, 4721, 4720, 5140, 5141, 5162, 5161
4277, 4700, 4701, 4722, 4721, 5141, 5142, 5163, 5162
4278, 4701, 4702, 4723, 4722, 5142, 5143, 5164, 5163
4279, 4702, 4703, 4724, 4723, 5143, 5144, 5165, 5164
4280, 4703, 4704, 4725, 4724, 5144, 5145, 5166, 5165
4281, 4705, 4706, 4727, 4726, 5146, 5147, 5168, 5167
4282, 4706, 4707, 4728, 4727, 5147, 5148, 5169, 5168
4283, 4707, 4708, 4729, 4728, 5148, 5149, 5170, 5169
4284, 4708, 4709, 4730, 4729, 5149, 5150, 5171, 5170
4285, 4709, 4710, 4731, 4730, 5150, 5151, 5172, 5171
4286, 4710, 4711, 4732, 4731, 5151, 5152, 5173, 5172
4287, 4711, 4712, 4733, 4732, 5152, 5153, 5174, 5173
4288, 4712, 4713, 4734, 4733, 5153, 5154, 5175, 5174
4289, 4713, 4714, 4735, 4734, 5154, 5155, 5176, 5175
4290, 4714, 4715, 4736, 4735, 5155, 5156, 5177, 5176
4291, 4715, 4716, 4737, 4736, 5156, 5157, 5178, 5177
4292, 4716, 4717, 4738, 4737, 5157, 5158, 5179, 5178
4293, 4717, 4718, 4739, 4738, 5158, 5159, 5180, 5179
4294, 4718, 4719, 4740, 4739, 5159, 5160, 5181, 5180
4295, 4719, 4720, 4741, 4740, 5160, 5161, 5182, 5181
4296, 4720, 4721, 4742, 4741, 5161, 5162, 5183, 5182
4297, 4721, 4722, 4743, 4742, 5162, 5163, 5184, 5183
4298, 4722, 4723, 4744, 4743, 5163, 5164, 5185, 5184
4299, 4723, 4724, 4745, 4744, 5164, 5165, 5186, 5185
4300, 4724, 4725, 4746, 4745, 5165, 5166, 5187, 5186
4301, 4726, 4727, 4748, 4747, 5167, 5168, 5189, 5188
4302, 4727, 4728, 4749, 4748, 5168, 5169, 5190, 5189
4303, 4728, 4729, 4750, 4749, 5169, 5170, 5191, 5190
4304, 4729, 4730, 4751, 4750, 5170, 5171, 5192, 5191
4305, 4730, 4731, 4752, 4751, 5171, 5172, 5193, 5192
4306, 4731, 4732, 4753, 4752, 5172, 5173, 5194, 5193
4307, 4732, 4733, 4754, 4753, 5173, 5174, 5195, 5194
4308, 4733, 4734, 4755, 4754, 5174, 5175, 5196, 5195
4309, 4734, 4735, 4756, 4755, 5175, 5176, 5197, 5196
4310, 4735, 4736, 4757, 4756, 5176, 5177, 5198, 5197
4311, 4736, 4737, 4758, 4757, 5177, 5178, 5199, 5198
4312, 4737, 4738, 4759, 4758, 5178, 5179, 5200, 5199
4313, 4738, 4739, 4760, 4759, 5179, 5180, 5201, 5200
4314, 4739, 4740, 4761, 4760, 5180, 5181, 5202, 5201
4315, 4740, 4741, 4762, 4761, 5181, 5182, 5203, 5202
4316, 4741, 4742, 4763, 4762, 5182, 5183, 5204, 5203
4317, 4742, 4743, 4764, 4763, 5183, 5184, 5205, 5204
4318, 4743, 4744, 4765, 4764, 5184, 5185, 5206, 5205
4319, 4744, 4745, 4766, 4765, 5185, 5186, 5207, 5206
4320, 4745, 4746, 4767, 4766, 5186, 5187, 5208, 5207
4321, 4747, 4748, 4769, 4768, 5188, 5189, 5210, 5209
4322, 4748, 4749, 4770, 4769, 5189, 5190, 5211, 5210
4323, 4749, 4750, 4771, 4770, 5190, 5191, 5212, 5211
4324, 4750, 4751, 4772, 4771, 5191, 5192, 5213, 5212
4325, 4751, 4752, 4773, 4772, 5192, 5193, 5214, 5213
4326, 4752, 4753, 4774, 4773, 5193, 5194, 5215, 5214
4327, 4753, 4754, 4775, 4774, 5194, 5195, 5216, 5215
4328, 4754, 4755, 4776, 4775, 5195, 5196, 5217, 5216
4329, 4755, 4756, 4777, 4776, 5196, 5197, 5218, 5217
4330, 4756, 4757, 4778, 4777, 5197, 5198, 5219, 5218
4331, 4757, 4758, 4779, 4778, 5198, 5199, 5220, 5219
4332, 4758, 4759, 4780, 4779, 5199, 5200, 5221, 5220
4333, 4759, 4760, 4781, 4780, 5200, 5201, 5222, 5221
4334, 4760, 4761, 4782, 4781, 5201, 5202, 5223, 5222
4335, 4761, 4762, 4783, 4782, 5202, 5203, 5224, 5223
4336, 4762, 4763, 4784, 4783, 5203, 5204, 5225, 5224
4337, 4763, 4764, 4785, 4784, 5204, 5205, 5226, 5225
4338, 4764, 4765, 4786, 4785, 5205, 5206, 5227, 5226
4339, 4765, 4766, 4787, 4786, 5206, 5207, 5228, 5227
4340, 4766, 4767, 4788, 4787, 5207, 5208, 5229, 5228
4341, 4768, 4769, 4790, 4789, 5209, 5210, 5231, 5230
4342, 4769, 4770, 4791, 4790, 5210, 5211, 5232, 5231
4343, 4770, 4771, 4792, 4791, 5211, 5212, 5233, 5232
4344, 4771, 4772, 4793, 4792, 5212, 5213, 5234, 5233
4345, 4772, 4773, 4794, 4793, 5213, 5214, 5235, 5234
4346, 4773, 4774, 4795, 4794, 5214, 5215, 5236, 5235
4347, 4774, 4775, 4796, 4795, 5215, 5216, 5237, 5236
4348, 4775, 4776, 4797, 4796, 5216, 5217, 5238, 5237
4349, 4776, 4777, 4798, 4797, 5217, 5218, 5239, 5238
4350, 4777, 4778, 4799, 4798, 5218, 5219, 5240, 5239
4351, 4778, 4779, 4800, 4799, 5219, 5220, 5241, 5240
4352, 4779, 4780, 4801, 4800, 5220, 5221, 5242, 5241
4353, 4780, 4781, 4802, 4801, 5221, 5222, 5243, 5242
4354, 4781, 4782, 4803, 4802, 5222, 5223, 5244, 5243
4355, 4782, 4783, 4804, 4803, 5223, 5224, 5245, 5244
4356, 4783, 4784, 4805, 4804, 5224, 5225, 5246, 5245
4357, 4784, 4785, 4806, 4805, 5225, 5226, 5247, 5246
4358, 4785, 4786, 4807, 4806, 5226, 5227, 5248, 5247
4359, 4786, 4787, 4808, 4807, 5227, 5228, 5249, 5248
4360, 4787, 4788, 4809, 4808, 5228, 5229, 5250, 5249
4361, 4789, 4790, 4811, 4810, 5230, 5231, 5252, 5251
4362, 4790, 4791, 4812, 4811, 5231, 5232, 5253, 5252
4363, 4791, 4792, 4813, 4812, 5232, 5233, 5254, 5253
4364, 4792, 4793, 4814, 4813, 5233, 5234, 5255, 5254
4365, 4793, 4794, 4815, 4814, 5234, 5235, 5256, 5255
4366, 4794, 4795, 4816, 4815, 5235, 5236, 5257, 5256
4367, 4795, 4796, 4817, 4816, 5236, 5237, 5258, 5257
4368, 4796, 4797, 4818, 4817, 5237, 5238, 5259, 5258
4369, 4797, 4798, 4819, 4818, 5238, 5239, 5260, 5259
4370, 4798, 4799, 4820, 4819, 5239, 5240, 5261, 5260
4371, 4799, 4800, 4821, 4820, 5240, 5241, 5262, 5261
4372, 4800, 4801, 4822, 4821, 5241, 5242, 5263, 5262
4373, 4801, 4802, 4823, 4822, 5242, 5243, 5264, 5263
4374, 4802, 4803, 4824, 4823, 5243, 5244, 5265, 5264
4375, 4803, 4804, 4825, 4824, 5244, 5245, 5266, 5265
4376, 4804, 4805, 4826, 4825, 5245, 5246, 5267, 5266
4377, 4805, 4806, 4827, 4826, 5246, 5247, 5268, 5267
4378, 4806, 4807, 4828, 4827, 5247, 5248, 5269, 5268
4379, 4807, 4808, 4829, 4828, 5248, 5249, 5270, 5269
4380, 4808, 4809, 4830, 4829, 5249, 5250, 5271, 5270
4381, 4810, 4811, 4832, 4831, 5251, 5252, 5273, 5272
4382, 4811, 4812, 4833, 4832, 5252, 5253, 5274, 5273
4383, 4812, 4813, 4834, 4833, 5253, 5254, 5275, 5274
4384, 4813, 4814, 4835, 4834, 5254, 5255, 5276, 5275
4385, 4814, 4815, 4836, 4835, 5255, 5256, 5277, 5276
4386, 4815, 4816, 4837, 4836, 5256, 5257, 5278, 5277
4387, 4816, 4817, 4838, 4837, 5257, 5258, 5279, 5278
4388, 4817, 4818, 4839, 4838, 5258, 5259, 5280, 5279
4389, 4818, 4819, 4840, 4839, 5259, 5260, 5281, 5280
4390, 4819, 4820, 4841, 4840, 5260, 5261, 5282, 5281
4391, 4820, 4821, 4842, 4841, 5261, 5262, 5283, 5282
4392, 4821, 4822, 4843, 4842, 5262, 5263, 5284, 5283
4393, 4822, 4823, 4844, 4843, 5263, 5264, 5285, 5284
4394, 4823, 4824, 4845, 4844, 5264, 5265, 5286, 5285
4395, 4824, 4825, 4846, 4845, 5265, 5266, 5287, 5286
4396, 4825, 4826, 4847, 4846, 5266, 5267, 5288, 5287
4397, 4826, 4827, 4848, 4847, 5267, 5268, 5289, 5288
4398, 4827, 4828, 4849, 4848, 5268, 5269, 5290, 5289
4399, 4828, 4829, 4850, 4849, 5269, 5270, 5291, 5290
4400, 4829, 4830, 4851, 4850, 5270, 5271, 5292, 5291
4401, 4852, 4853, 4874, 4873, 5293, 5294, 5315, 5314
4402, 4853, 4854, 4875, 4874, 5294, 5295, 5316, 5315
4403, 4854, 4855, 4876, 4875, 5295, 5296, 5317, 5316
4404, 4855, 4856, 4877, 4876, 5296, 5297, 5318, 5317
4405, 4856, 4857, 4878, 4877, 5297, 5298, 5319, 5318
4406, 4857, 4858, 4879, 4878, 5298, 5299, 5320, 5319
4407, 4858, 4859, 4880, 4879, 5299, 5300, 5321, 5320
4408, 4859, 4860, 4881, 4880, 5300, 5301, 5322, 5321
4409, 4860, 4861, 4882, 4881, 5301, 5302, 5323, 5322
4410, 4861, 4862, 4883, 4882, 5302, 5303, 5324, 5323
4411, 4862, 4863, 4884, 4883, 5303, 5304, 5325, 5324
4412, 4863, 4864, 4885, 4884, 5304, 5305, 5326, 5325
4413, 4864, 4865, 4886, 4885, 5305, 5306, 5327, 5326
4414, 4865, 4866, 4887, 4886, 5306, 5307, 5328, 5327
4415, 4866, 4867, 4888, 4887, 5307, 5308, 5329, 5328
4416, 4867, 4868, 4889, 4888, 5308, 5309, 5330, 5329
4417, 4868, 4869, 4890, 4889, 5309, 5310, 5331, 5330
4418, 4869, 4870, 4891, 4890, 5310, 5311, 5332, 5331
4419, 4870, 4871, 4892, 4891, 5311, 5312, 5333, 5332
4420, 4871, 4872, 4893, 4892, 5312, 5313, 5334, 5333
4421, 4873, 4874, 4895, 4894, 5314, 5315, 5336, 5335
4422, 4874, 4875, 4896, 4895, 5315, 5316, 5337, 5336
4423, 4875, 4876, 4897, 4896, 5316, 5317, 5338, 5337
4424, 4876, 4877, 4898, 4897, 5317, 5318, 5339, 5338
4425, 4877, 4878, 4899, 4898, 5318, 5319, 5340, 5339
4426, 4878, 4879, 4900, 4899, 5319, 5320, 5341, 5340
4427, 4879, 4880, 4901, 4900, 5320, 5321, 5342, 5341
4428, 4880, 4881, 4902, 4901, 5321, 5322, 5343, 5342
4429, 4881, 4882, 4903, 4902, 5322, 5323, 5344, 5343
4430, 4882, 4883, 4904, 4903, 5323, 5324, 5345, 5344
4431, 4883, 4884, 4905, 4904, 5324, 5325, 5346, 5345
4432, 4884, 4885, 4906, 4905, 5325, 5326, 5347, 5346
4433, 4885, 4886, 4907, 4906, 5326, 5327, 5348, 5347
4434, 4886, 4887, 4908, 4907, 5327, 5328, 5349, 5348
4435, 4887, 4888, 4909, 4908, 5328, 5329, 5350, 5349
4436, 4888, 4889, 4910, 4909, 5329, 5330, 5351, 5350
4437, 4889, 4890, 4911, 4910, 5330, 5331, 5352, 5351
4438, 4890, 4891, 4912, 4911, 5331, 5332, 5353, 5352
4439, 4891, 4892, 4913, 4912, 5332, 5333, 5354, 5353
4440, 4892, 4893, 4914, 4913, 5333, 5334, 5355, 5354
4441, 4894, 4895, 4916, 4915, 5335, 5336, 5357, 5356
4442, 4895, 4896, 4917, 4916, 5336, 5337, 5358, 5357
4443, 4896, 4897, 4918, 4917, 5337, 5338, 5359, 5358
4444, 4897, 4898, 4919, 4918, 5338, 5339, 5360, 5359
4445, 4898, 4899, 4920, 4919, 5339, 5340, 5361, 5360
4446, 4899, 4900, 4921, 4920, 5340, 5341, 5362, 5361
4447, 4900, 4901, 4922, 4921, 5341, 5342, 5363, 5362
4448, 4901, 4902, 4923, 4922, 5342, 5343, 5364, 5363
4449, 4902, 4903, 4924, 4923, 5343, 5344, 5365, 5364
4450, 4903, 4904, 4925, 4924, 5344, 5345, 5366, 5365
4451, 4904, 4905, 4926, 4925, 5345, 5346, 5367, 5366
4452, 4905, 4906, 4927, 4926, 5346, 5347, 5368, 5367
4453, 4906, 4907, 4928, 4927, 5347, 5348, 5369, 5368
4454, 4907, 4908, 4929, 4928, 5348, 5349, 5370, 5369
4455, 4908, 4909, 4930, 4929, 5349, 5350, 5371, 5370
4456, 4909, 4910, 4931, 4930, 5350, 5351, 5372, 5371
4457, 4910, 4911, 4932, 4931, 5351, 5352, 5373, 5372
4458, 4911, 4912, 4933, 4932, 5352, 5353, 5374, 5373
4459, 4912, 4913, 4934, 4933, 5353, 5354, 5375, 5374
4460, 4913, 4914, 4935, 4934, 5354, 5355, 5376, 5375
4461, 4915, 4916, 4937, 4936, 5356, 5357, 5378, 5377
4462, 4916, 4917, 4938, 4937, 5357, 5358, 5379, 5378
4463, 4917, 4918, 4939, 4938, 5358, 5359, 5380, 5379
4464, 4918, 4919, 4940, 4939, 5359, 5360, 5381, 5380
4465, 4919, 4920, 4941, 4940, 5360, 5361, 5382, 5381
4466, 4920, 4921, 4942, 4941, 5361, 5362, 5383, 5382
4467, 4921, 4922, 4943, 4942, 5362, 5363, 5384, 5383
4468, 4922, 4923, 4944, 4943, 5363, 5364, 5385, 5384
4469, 4923, 4924, 4945, 4944, 5364, 5365, 5386, 5385
4470, 4924, 4925, 4946, 4945, 5365, 5366, 5387, 5386
4471, 4925, 4926, 4947, 4946, 5366, 5367, 5388, 5387
4472, 4926, 4927, 4948, 4947, 5367, 5368, 5389, 5388
4473, 4927, 4928, 4949, 4948, 5368, 5369, 5390, 5389
4474, 4928, 4929, 4950, 4949, 5369, 5370, 5391, 5390
4475, 4929, 4930, 4951, 4950, 5370, 5371, 5392, 5391
4476, 4930, 4931, 4952, 4951, 5371, 5372, 5393, 5392
4477, 4931, 4932, 4953, 4952, 5372, 5373, 5394, 5393
4478, 4932, 4933, 4954, 4953, 5373, 5374, 5395, 5394
4479, 4933, 4934, 4955, 4954, 5374, 5375, 5396, 5395
4480, 4934, 4935, 4956, 4955, 5375, 5376, 5397, 5396
4481, 4936, 4937, 4958, 4957, 5377, 5378, 5399, 5398
4482, 4937, 4938, 4959, 4958, 5378, 5379, 5400, 5399
4483, 4938, 4939, 4960, 4959, 5379, 5380, 5401, 5400
4484, 4939, 4940, 4961, 4960, 5380, 5381, 5402, 5401
4485, 4940, 4941, 4962, 4961, 5381, 5382, 5403, 5402
4486, 4941, 4942, 4963, 4962, 5382, 5383, 5404, 5403
4487, 4942, 4943, 4964, 4963, 5383, 5384, 5405, 5404
4488, 4943, 4944, 4965, 4964, 5384, 5385, 5406, 5405
4489, 4944, 4945, 4966, 4965, 5385, 5386, 5407, 5406
4490, 4945, 4946, 4967, 4966, 5386, 5387, 5408, 5407
4491, 4946, 4947, 4968, 4967, 5387, 5388, 5409, 5408
4492, 4947, 4948, 4969, 4968, 5388, 5389, 5410, 5409
4493, 4948, 4949, 4970, 4969, 5389, 5390, 5411, 5410
4494, 4949, 4950, 4971, 4970, 5390, 5391, 5412, 5411
4495, 4950, 4951, 4972, 4971, 5391, 5392, 5413, 5412
4496, 4951, 4952, 4973, 4972, 5392, 5393, 5414, 5413
4497, 4952, 4953, 4974, 4973, 5393, 5394, 5415, 5414
4498, 4953, 4954, 4975, 4974, 5394, 5395, 5416, 5415
4499, 4954, 4955, 4976, 4975, 5395, 5396, 5417, 5416
4500, 4955, 4956, 4977, 4976, 5396, 5397, 5418, 5417
4501, 4957, 4958, 4979, 4978, 5398, 5399, 5420, 5419
4502, 4958, 4959, 4980, 4979, 5399, 5400, 5421, 5420
4503, 4959, 4960, 4981, 4980, 5400, 5401, 5422, 5421
4504, 4960, 4961, 4982, 4981, 5401, 5402, 5423, 5422
4505, 4961, 4962, 4983, 4982, 5402, 5403, 5424, 5423
4506, 4962, 4963, 4984, 4983, 5403, 5404, 5425, 5424
4507, 4963, 4964, 4985, 4984, 5404, 5405, 5426, 5425
4508, 4964, 4965, 4986, 4985, 5405, 5406, 5427, 5426
4509, 4965, 4966, 4987, 4986, 5406, 5407, 5428, 5427
4510, 4966, 4967, 4988, 4987, 5407, 5408, 5429, 5428
4511, 4967, 4968, 4989, 4988, 5408, 5409, 5430, 5429
4512, 4968, 4969, 4990, 4989, 5409, 5410, 5431, 5430
4513, 4969, 4970, 4991, 4990, 5410, 5411, 5432, 5431
4514, 4970, 4971, 4992, 4991, 5411, 5412, 5433, 5432
4515, 4971, 4972, 4993, 4992, 5412, 5413, 5434, 5433
4516, 4972, 4973, 4994, 4993, 5413, 5414, 5435, 5434
4517, 4973, 4974, 4995, 4994, 5414, 5415, 5436, 5435
4518, 4974, 4975, 4996, 4995, 5415, 5416, 5437, 5436
4519, 4975, 4976, 4997, 4996, 5416, 5417, 5438, 5437
4520, 4976, 4977, 4998, 4997, 5417, 5418, 5439, 5438
4521, 4978, 4979, 5000, 4999, 5419, 5420, 5441, 5440
4522, 4979, 4980, 5001, 5000, 5420, 5421, 5442, 5441
4523, 4980, 4981, 5002, 5001, 5421, 5422, 5443, 5442
4524, 4981, 4982, 5003, 5002, 5422, 5423, 5444, 5443
4525, 4982, 4983, 5004, 5003, 5423, 5424, 5445, 5444
4526, 4983, 4984, 5005, 5004, 5424, 5425, 5446, 5445
4527, 4984, 4985, 5006, 5005, 5425, 5426, 5447, 5446
4528, 4985, 4986, 5007, 5006, 5426, 5427, 5448, 5447
4529, 4986, 4987, 5008, 5007, 5427, 5428, 5449, 5448
4530, 4987, 4988, 5009, 5008, 5428, 5429, 5450, 5449
4531, 4988, 4989, 5010, 5009, 5429, 5430, 5451, 5450
4532, 4989, 4990, 5011, 5010, 5430, 5431, 5452, 5451
4533, 4990, 4991, 5012, 5011, 5431, 5432, 5453, 5452
4534, 4991, 4992, 5013, 5012, 5432, 5433, 5454, 5453
4535, 4992, 4993, 5014, 5013, 5433, 5434, 5455, 5454
4536, 4993, 4994, 5015, 5014, 5434, 5435, 5456, 5455
4537, 4994, 4995, 5016, 5015, 5435, 5436, 5457, 5456
4538, 4995, 4996, 5017, 5016, 5436, 5437, 5458, 5457
4539, 4996, 4997, 5018, 5017, 5437, 5438, 5459, 5458
4540, 4997, 4998, 5019, 5018, 5438, 5439, 5460, 5459
4541, 4999, 5000, 5021, 5020, 5440, 5441, 5462, 5461
4542, 5000, 5001, 5022, 5021, 5441, 5442, 5463, 5462
4543, 5001, 5002, 5023, 5022, 5442, 5443, 5464, 5463
4544, 5002, 5003, 5024, 5023, 5443, 5444, 5465, 5464
4545, 5003, 5004, 5025, 5024, 5444, 5445, 5466, 5465
4546, 5004, 5005, 5026, 5025, 5445, 5446, 5467, 5466
4547, 5005, 5006, 5027, 5026, 5446, 5447, 5468, 5467
4548, 5006, 5007, 5028, 5027, 5447, 5448, 5469, 5468
4549, 5007, 5008, 5029, 5028, 5448, 5449, 5470, 5469
4550, 5008, 5009, 5030, 5029, 5449, 5450, 5471, 5470
4551, 5009, 5010, 5031, 5030, 5450, 5451, 5472, 5471
4552, 5010, 5011, 5032, 5031, 5451, 5452, 5473, 5472
4553, 5011, 5012, 5033, 5032, 5452, 5453, 5474, 5473
4554, 5012, 5013, 5034, 5033, 5453, 5454, 5475, 5474
4555, 5013, 5014, 5035, 5034, 5454, 5455, 5476, 5475
4556, 5014, 5015, 5036, 5035, 5455, 5456, 5477, 5476
4557, 5015, 5016, 5037, 5036, 5456, 5457, 5478, 5477
4558, 5016, 5017, 5038, 5037, 5457, 5458, 5479, 5478
4559, 5017, 5018, 5039, 5038, 5458, 5459, 5480, 5479
4560, 5018, 5019, 5040, 5039, 5459, 5460, 5481, 5480
4561, 5020, 5021, 5042, 5041, 5461, 5462, 5483, 5482
4562, 5021, 5022, 5043, 5042, 5462, 5463, 5484, 5483
4563, 5022, 5023, 5044, 5043, 5463, 5464, 5485, 5484
4564, 5023, 5024, 5045, 5044, 5464, 5465, 5486, 5485
4565, 5024, 5025, 5046, 5045, 5465, 5466, 5487, 5486
4566, 5025, 5026, 5047, 5046, 5466, 5467, 5488, 5487
4567, 5026, 5027, 5048, 5047, 5467, 5468, 5489, 5488
4568, 5027, 5028, 5049, 5048, 5468, 5469, 5490, 5489
4569, 5028, 5029, 5050, 5049, 5469, 5470, 5491, 5490
4570, 5029, 5030, 5051, 5050, 5470, 5471, 5492, 5491
4571, 5030, 5031, 5052, 5051, 5471, 5472, 5493, 5492
4572, 5031, 5032, 5053, 5052, 5472, 5473, 5494, 5493
4573, 5032, 5033, 5054, 5053, 5473, 5474, 5495, 5494
4574, 5033, 5034, 5055, 5054, 5474, 5475, 5496, 5495
4575, 5034, 5035, 5056, 5055, 5475, 5476, 5497, 5496
4576, 5035, 5036, 5057, 5056, 5476, 5477, 5498, 5497
4577, 5036, 5037, 5058, 5057, 5477, 5478, 5499, 5498
4578, 5037, 5038, 5059, 5058, 5478, 5479, 5500, 5499
4579, 5038, 5039, 5060, 5059, 5479, 5480, 5501, 5500
4580, 5039, 5040, 5061, 5060, 5480, 5481, 5502, 5501
4581, 5041, 5042, 5063, 5062, 5482, 5483, 5504, 5503
4582, 5042, 5043, 5064, 5063, 5483, 5484, 5505, 5504
4583, 5043, 5044, 5065, 5064, 5484, 5485, 5506, 5505
4584, 5044, 5045, 5066, 5065, 5485, 5486, 5507, 5506
4585, 5045, 5046, 5067, 5066, 5486, 5487, 5508, 5507
4586, 5046, 5047, 5068, 5067, 5487, 5488, 5509, 5508
4587, 5047, 5048, 5069, 5068, 5488, 5489, 5510, 5509
4588, 5048, 5049, 5070, 5069, 5489, 5490, 5511, 5510
4589, 5049, 5050, 5071, 5070, 5490, 5491, 5512, 5511
4590, 5050, 5051, 5072, 5071, 5491, 5492, 5513, 5512
4591, 5051, 5052, 5073, 5072, 5492, 5493, 5514, 5513
4592, 5052, 5053, 5074, 5073, 5493, 5494, 5515, 5514
4593, 5053, 5054, 5075, 5074, 5494, 5495, 5516, 5515
4594, 5054, 5055, 5076, 5075, 5495, 5496, 5517, 5516
4595, 5055, 5056, 5077, 5076, 5496, 5497, 5518, 5517
4596, 5056, 5057, 5078, 5077, 5497, 5498, 5519, 5518
4597, 5057, 5058, 5079, 5078, 5498, 5499, 5520, 5519
4598, 5058, 5059, 5080, 5079, 5499, 5500, 5521, 5520
4599, 5059, 5060, 5081, 5080, 5500, 5501, 5522, 5521
4600, 5060, 5061, 5082, 5081, 5501, 5502, 5523, 5522
4601, 5062, 5063, 5084, 5083, 5503, 5504, 5525, 5524
4602, 5063, 5064, 5085, 5084, 5504, 5505, 5526, 5525
4603, 5064, 5065, 5086, 5085, 5505, 5506, 5527, 5526
4604, 5065, 5066, 5087, 5086, 5506, 5507, 5528, 5527
4605, 5066, 5067, 5088, 5087, 5507, 5508, 5529, 5528
4606, 5067, 5068, 5089, 5088, 5508, 5509, 5530, 5529
4607, 5068, 5069, 5090, 5089, 5509, 5510, 5531, 5530
4608, 5069, 5070, 5091, 5090, 5510, 5511, 5532, 5531
4609, 5070, 5071, 5092, 5091, 5511, 5512, 5533, 5532
4610, 5071, 5072, 5093, 5092, 5512, 5513, 5534, 5533
4611, 5072, 5073, 5094, 5093, 5513, 5514, 5535, 5534
4612, 5073, 5074, 5095, 5094, 5514, 5515, 5536, 5535
4613, 5074, 5075, 5096, 5095, 5515, 5516, 5537, 5536
4614, 5075, 5076, 5097, 5096, 5516, 5517, 5538, 5537
4615, 5076, 5077, 5098, 5097, 5517, 5518, 5539, 5538
4616, 5077, 5078, 5099, 5098, 5518, 5519, 5540, 5539
4617, 5078, 5079, 5100, 5099, 5519, 5520, 5541, 5540
4618, 5079, 5080, 5101, 5100, 5520, 5521, 5542, 5541
4619, 5080, 5081, 5102, 5101, 5521, 5522, 5543, 5542
4620, 5081, 5082, 5103, 5102, 5522, 5523, 5544, 5543
4621, 5083, 5084, 5105, 5104, 5524, 5525, 5546, 5545
4622, 5084, 5085, 5106, 5105, 5525, 5526, 5547, 5546
4623, 5085, 5086, 5107, 5106, 5526, 5527, 5548, 5547
4624, 5086, 5087, 5108, 5107, 5527, 5528, 5549, 5548
4625, 5087, 5088, 5109, 5108, 5528, 5529, 5550, 5549
4626, 5088, 5089, 5110, 5109, 5529, 5530, 5551, 5550
4627, 5089, 5090, 5111, 5110, 5530, 5531, 5552, 5551
4628, 5090, 5091, 5112, 5111, 5531, 5532, 5553, 5552
4629, 5091, 5092, 5113, 5112, 5532, 5533, 5554, 5553
4630, 5092, 5093, 5114, 5113, 5533, 5534, 5555, 5554
4631, 5093, 5094, 5115, 5114, 5534, 5535, 5556, 5555
4632, 5094, 5095, 5116, 5115, 5535, 5536, 5557, 5556
4633, 5095, 5096, 5117, 5116, 5536, 5537, 5558, 5557
4634, 5096, 5097, 5118, 5117, 5537, 5538, 5559, 5558
4635, 5097, 5098, 5119, 5118, 5538, 5539, 5560, 5559
4636, 5098, 5099, 5120, 5119, 5539, 5540, 5561, 5560
4637, 5099, 5100, 5121, 5120, 5540, 5541, 5562, 5561
4638, 5100, 5101, 5122, 5121, 5541, 5542, 5563, 5562
4639, 5101, 5102, 5123, 5122, 5542, 5543, 5564, 5563
4640, 5102, 5103, 5124, 5123, 5543, 5544, 5565, 5564
4641, 5104, 5105, 5126, 5125, 5545, 5546, 5567, 5566
4642, 5105, 5106, 5127, 5126, 5546, 5547, 5568, 5567
4643, 5106, 5107, 5128, 5127, 5547, 5548, 5569, 5568
4644, 5107, 5108, 5129, 5128, 5548, 5549, 5570, 5569
4645, 5108, 5109, 5130, 5129, 5549, 5550, 5571, 5570
4646, 5109, 5110, 5131, 5130, 5550, 5551, 5572, 5571
4647, 5110, 5111, 5132, 5131, 5551, 5552, 5573, 5572
4648, 5111, 5112, 5133, 5132, 5552, 5553, 5574, 5573
4649, 5112, 5113, 5134, 5133, 5553, 5554, 5575, 5574
4650, 5113, 5114, 5135, 5134, 5554, 5555, 5576, 5575
4651, 5114, 5115, 5136, 5135, 5555, 5556, 5577, 5576
4652, 5115, 5116, 5137, 5136, 5556, 5557, 5578, 5577
4653, 5116, 5117, 5138, 5137, 5557, 5558, 5579, 5578
4654, 5117, 5118, 5139, 5138, 5558, 5559, 5580, 5579
4655, 5118, 5119, 5140, 5139, 5559, 5560, 5581, 5580
4656, 5119, 5120, 5141, 5140, 5560, 5561, 5582, 5581
4657, 5120, 5121, 5142, 5141, 5561, 5562, 5583, 5582
4658, 5121, 5122, 5143, 5142, 5562, 5563, 5584, 5583
4659, 5122, 5123, 5144, 5143, 5563, 5564, 5585, 5584
4660, 5123, 5124, 5145, 5144, 5564, 5565, 5586, 5585
4661, 5125, 5126, 5147, 5146, 5566, 5567, 5588, 5587
4662, 5126, 5127, 5148, 5147, 5567, 5568, 5589, 5588
4663, 5127, 5128, 5149, 5148, 5568, 5569, 5590, 5589
4664, 5128, 5129, 5150, 5149, 5569, 5570, 5591, 5590
4665, 5129, 5130, 5151, 5150, 5570, 5571, 5592, 5591
4666, 5130, 5131, 5152, 5151, 5571, 5572, 5593, 5592
4667, 5131, 5132, 5153, 5152, 5572, 5573, 5594, 5593
4668, 5132, 5133, 5154, 5153, 5573, 5574, 5595, 5594
4669, 5133, 5134, 5155, 5154, 5574, 5575, 5596, 5595
4670, 5134, 5135, 5156, 5155, 5575, 5576, 5597, 5596
4671, 5135, 5136, 5157, 5156, 5576, 5577, 5598, 5597
4672, 5136, 5137, 5158, 5157, 5577, 5578, 5599, 5598
4673, 5137, 5138, 5159, 5158, 5578, 5579, 5600, 5599
4674, 5138, 5139, 5160, 5159, 5579, 5580, 5601, 5600
4675, 5139, 5140, 5161, 5160, 5580, 5581, 5602, 5601
4676, 5140, 5141, 5162, 5161, 5581, 5582, 5603, 5602
4677, 5141, 5142, 5163, 5162, 5582, 5583, 5604, 5603
4678, 5142, 5143, 5164, 5163, 5583, 5584, 5605, 5604
4679, 5143, 5144, 5165, 5164, 5584, 5585, 5606, 5605
4680, 5144, 5145, 5166, 5165, 5585, 5586, 5607, 5606
4681, 5146, 5147, 5168, 5167, 5587, 5588, 5609, 5608
4682, 5147, 5148, 5169, 5168, 5588, 5589, 5610, 5609
4683, 5148, 5149, 5170, 5169, 5589, 5590, 5611, 5610
4684, 5149, 5150, 5171, 5170, 5590, 5591, 5612, 5611
4685, 5150, 5151, 5172, 5171, 5591, 5592, 5613, 5612
4686, 5151, 5152, 5173, 5172, 5592, 5593, 5614, 5613
4687, 5152, 5153, 5174, 5173, 5593, 5594, 5615, 5614
4688, 5153, 5154, 5175, 5174, 5594, 5595, 5616, 5615
4689, 5154, 5155, 5176, 5175, 5595, 5596, 5617, 5616
4690, 5155, 5156, 5177, 5176, 5596, 5597, 5618, 5617
4691, 5156, 5157, 5178, 5177, 5597, 5598, 5619, 5618
4692, 5157, 5158, 5179, 5178, 5598, 5599, 5620, 5619
4693, 5158, 5159, 5180, 5179, 5599, 5600, 5621, 5620
4694, 5159, 5160, 5181, 5180, 5600, 5601, 5622, 5621
4695, 5160, 5161, 5182, 5181, 5601, 5602, 5623, 5622
4696, 5161, 5162, 5183, 5182, 5602, 5603, 5624, 5623
4697, 5162, 5163, 5184, 5183, 5603, 5604, 5625, 5624
4698, 5163, 5164, 5185, 5184, 5604, 5605, 5626, 5625
4699, 5164, 5165, 5186, 5185, 5605, 5606, 5627, 5626
4700, 5165, 5166, 5187, 5186, 5606, 5607, 5628, 5627
4701, 5167, 5168, 5189, 5188, 5608, 5609, 5630, 5629
4702, 5168, 5169, 5190, 5189, 5609, 5610, 5631, 5630
4703, 5169, 5170, 5191, 5190, 5610, 5611, 5632, 5631
4704, 5170, 5171, 5192, 5191, 5611, 5612, 5633, 5632
4705, 5171, 5172, 5193, 5192, 5612, 5613, 5634, 5633
4706, 5172, 5173, 5194, 5193, 5613, 5614, 5635, 5634
4707, 5173, 5174, 5195, 5194, 5614, 5615, 5636, 5635
4708, 5174, 5175, 5196, 5195, 5615, 5616, 5637, 5636
4709, 5175, 5176, 5197, 5196, 5616, 5617, 5638, 5637
4710, 5176, 5177, 5198, 5197, 5617, 5618, 5639, 5638
4711, 5177, 5178, 5199, 5198, 5618, 5619, 5640, 5639
4712, 5178, 5179, 5200, 5199, 5619, 5620, 5641, 5640
4713, 5179, 5180, 5201, 5200, 5620, 5621, 5642, 5641
4714, 5180, 5181, 5202, 5201, 5621, 5622, 5643, 5642
4715, 5181, 5182, 5203, 5202, 5622, 5623, 5644, 5643
4716, 5182, 5183, 5204, 5203, 5623, 5624, 5645, 5644
4717, 5183, 5184, 5205, 5204, 5624, 5625, 5646, 5645
4718, 5184, 5185, 5206, 5205, 5625, 5626, 5647, 5646
4719, 5185, 5186, 5207, 5206, 5626, 5627, 5648, 5647
4720, 5186, 5187, 5208, 5207, 5627, 5628, 5649, 5648
4721, 5188, 5189, 5210, 5209, 5629, 5630, 5651, 5650
4722, 5189, 5190, 5211, 5210, 5630, 5631, 5652, 5651
4723, 5190, 5191, 5212, 5211, 5631, 5632, 5653, 5652
4724, 5191, 5192, 5213, 5212, 5632, 5633, 5654, 5653
4725, 5192, 5193, 5214, 5213, 5633, 5634, 5655, 5654
4726, 5193, 5194, 5215, 5214, 5634, 5635, 5656, 5655
4727, 5194, 5195, 5216, 5215, 5635, 5636, 5657, 5656
4728, 5195, 5196, 5217, 5216, 5636, 5637, 5658, 5657
4729, 5196, 5197, 5218, 5217, 5637, 5638, 5659, 5658
4730, 5197, 5198, 5219, 5218, 5638, 5639, 5660, 5659
4731, 5198, 5199, 5220, 5219, 5639, 5640, 5661, 5660
4732, 5199, 5200, 5221, 5220, 5640, 5641, 5662, 5661
4733, 5200, 5201, 5222, 5221, 5641, 5642, 5663, 5662
4734, 5201, 5202, 5223, 5222, 5642, 5643, 5664, 5663
4735, 5202, 5203, 5224, 5223, 5643, 5644, 5665, 5664
4736, 5203, 5204, 5225, 5224, 5644, 5645, 5666, 5665
4737, 5204, 5205, 5226, 5225, 5645, 5646, 5667, 5666
4738, 5205, 5206, 5227, 5226, 5646, 5647, 5668, 5667
4739, 5206, 5207, 5228, 5227, 5647, 5648, 5669, 5668
4740, 5207, 5208, 5229, 5228, 5648, 5649, 5670, 5669
4741, 5209, 5210, 5231, 5230, 5650, 5651, 5672, 5671
4742, 5210, 5211, 5232, 5231, 5651, 5652, 5673, 5672
4743, 5211, 5212, 5233, 5232, 5652, 5653, 5674, 5673
4744, 5212, 5213, 5234, 5233, 5653, 5654, 5675, 5674
4745, 5213, 5214, 5235, 5234, 5654, 5655, 5676, 5675
4746, 5214, 5215, 5236, 5235, 5655, 5656, 5677, 5676
4747, 5215, 5216, 5237, 5236, 5656, 5657, 5678, 5677
4748, 5216, 5217, 5238, 5237, 5657, 5658, 5679, 5678
4749, 5217, 5218, 5239, 5238, 5658, 5659, 5680, 5679
4750, 5218, 5219, 5240, 5239, 5659, 5660, 5681, 5680
4751, 5219, 5220, 5241, 5240, 5660, 5661, 5682, 5681
4752, 5220, 5221, 5242, 5241, 5661, 5662, 5683, 5682
4753, 5221, 5222, 5243, 5242, 5662, 5663, 5684, 5683
4754, 5222, 5223, 5244, 5243, 5663, 5664, 5685, 5684
4755, 5223, 5224, 5245, 5244, 5664, 5665, 5686, 5685
4756, 5224, 5225, 5246, 5245, 5665, 5666, 5687, 5686
4757, 5225, 5226, 5247, 5246, 5666, 5667, 5688, 5687
4758, 5226, 5227, 5248, 5247, 5667, 5668, 5689, 5688
4759, 5227, 5228, 5249, 5248, 5668, 5669, 5690, 5689
4760, 5228, 5229, 5250, 5249, 5669, 5670, 5691, 5690
4761, 5230, 5231, 5252, 5251, 5671, 5672, 5693, 5692
4762, 5231, 5232, 5253, 5252, 5672, 5673, 5694, 5693
4763, 5232, 5233, 5254, 5253, 5673, 5674, 5695, 5694
4764, 5233, 5234, 5255, 5254, 5674, 5675, 5696, 5695
4765, 5234, 5235, 5256, 5255, 5675, 5676, 5697, 5696
4766, 5235, 5236, 5257, 5256, 5676, 5677, 5698, 5697
4767, 5236, 5237, 5258, 5257, 5677, 5678, 5699, 5698
4768, 5237, 5238, 5259, 5258, 5678, 5679, 5700, 5699
4769, 5238, 5239, 5260, 5259, 5679, 5680, 5701, 5700
4770, 5239, 5240, 5261, 5260, 5680, 5681, 5702, 5701
4771, 5240, 5241, 5262, 5261, 5681, 5682, 5703, 5702
4772, 5241, 5242, 5263, 5262, 5682, 5683, 5704, 5703
4773, 5242, 5243, 5264, 5263, 5683, 5684, 5705, 5704
4774, 5243, 5244, 5265, 5264, 5684, 5685, 5706, 5705
4775, 5244, 5245, 5266, 5265, 5685, 5686, 5707, 5706
4776, 5245, 5246, 5267, 5266, 5686, 5687, 5708, 5707
4777, 5246, 5247, 5268, 5267, 5687, 5688, 5709, 5708
4778, 5247, 5248, 5269, 5268, 5688, 5689, 5710, 5709
4779, 5248, 5249, 5270, 5269, 5689, 5690, 5711, 5710
4780, 5249, 5250, 5271, 5270, 5690, 5691, 5712, 5711
4781, 5251, 5252, 5273, 5272, 5692, 5693, 5714, 5713
4782, 5252, 5253, 5274, 5273, 5693, 5694, 5715, 5714
4783, 5253, 5254, 5275, 5274, 5694, 5695, 5716, 5715
4784, 5254, 5255, 5276, 5275, 5695, 5696, 5717, 5716
4785, 5255, 5256, 5277, 5276, 5696, 5697, 5718, 5717
4786, 5256, 5257, 5278, 5277, 5697, 5698, 5719, 5718
4787, 5257, 5258, 5279, 5278, 5698, 5699, 5720, 5719
4788, 5258, 5259, 5280, 5279, 5699, 5700, 5721, 5720
4789, 5259, 5260, 5281, 5280, 5700, 5701, 5722, 5721
4790, 5260, 5261, 5282, 5281, 5701, 5702, 5723, 5722
4791, 5261, 5262, 5283, 5282, 5702, 5703, 5724, 5723
4792, 5262, 5263, 5284, 5283, 5703, 5704, 5725, 5724
4793, 5263, 5264, 5285, 5284, 5704, 5705, 5726, 5725
4794, 5264, 5265, 5286, 5285, 5705, 5706, 5727, 5726
4795, 5265, 5266, 5287, 5286, 5706, 5707, 5728, 5727
4796, 5266, 5267, 5288, 5287, 5707, 5708, 5729, 5728
4797, 5267, 5268, 5289, 5288, 5708, 5709, 5730, 5729
4798, 5268, 5269, 5290, 5289, 5709, 5710, 5731, 5730
4799, 5269, 5270, 5291, 5290, 5710, 5711, 5732, 5731
4800, 5270, 5271, 5292, 5291, 5711, 5712, 5733, 5732
4801, 5293, 5294, 5315, 5314, 5734, 5735, 5756, 5755
4802, 5294, 5295, 5316, 5315, 5735, 5736, 5757, 5756
4803, 5295, 5296, 5317, 5316, 5736, 5737, 5758, 5757
4804, 5296, 5297, 5318, 5317, 5737, 5738, 5759, 5758
4805, 5297, 5298, 5319, 5318, 5738, 5739, 5760, 5759
4806, 5298, 5299, 5320, 5319, 5739, 5740, 5761, 5760
4807, 5299, 5300, 5321, 5320, 5740, 5741, 5762, 5761
4808, 5300, 5301, 5322, 5321, 5741, 5742, 5763, 5762
4809, 5301, 5302, 5323, 5322, 5742, 5743, 5764, 5763
4810, 5302, 5303, 5324, 5323, 5743, 5744, 5765, 5764
4811, 5303, 5304, 5325, 5324, 5744, 5745, 5766, 5765
4812, 5304, 5305, 5326, 5325, 5745, 5746, 5767, 5766
4813, 5305, 5306, 5327, 5326, 5746, 5747, 5768, 5767
4814, 5306, 5307, 5328, 5327, 5747, 5748, 5769, 5768
4815, 5307, 5308, 5329, 5328, 5748, 5749, 5770, 5769
4816, 5308, 5309, 5330, 5329, 5749, 5750, 5771, 5770
4817, 5309, 5310, 5331, 5330, 5750, 5751, 5772, 5771
4818, 5310, 5311, 5332, 5331, 5751, 5752, 5773, 5772
4819, 5311, 5312, 5333, 5332, 5752, 5753, 5774, 5773
4820, 5312, 5313, 5334, 5333, 5753, 5754, 5775, 5774
4821, 5314, 5315, 5336, 5335, 5755, 5756, 5777, 5776
4822, 5315, 5316, 5337, 5336, 5756, 5757, 5778, 5777
4823, 5316, 5317, 5338, 5337, 5757, 5758, 5779, 5778
4824, 5317, 5318, 5339, 5338, 5758, 5759, 5780, 5779
4825, 5318, 5319, 5340, 5339, 5759, 5760, 5781, 5780
4826, 5319, 5320, 5341, 5340, 5760, 5761, 5782, 5781
4827, 5320, 5321, 5342, 5341, 5761, 5762, 5783, 5782
4828, 5321, 5322, 5343, 5342, 5762, 5763, 5784, 5783
4829, 5322, 5323, 5344, 5343, 5763, 5764, 5785, 5784
4830, 5323, 5324, 5345, 5344, 5764, 5765, 5786, 5785
4831, 5324, 5325, 5346, 5345, 5765, 5766, 5787, 5786
4832, 5325, 5326, 5347, 5346, 5766, 5767, 5788, 5787
4833, 5326, 5327, 5348, 5347, 5767, 5768, 5789, 5788
4834, 5327, 5328, 5349, 5348, 5768, 5769, 5790, 5789
4835, 5328, 5329, 5350, 5349, 5769, 5770, 5791, 5790
4836, 5329, 5330, 5351, 5350, 5770, 5771, 5792, 5791
4837, 5330, 5331, 5352, 5351, 5771, 5772, 5793, 5792
4838, 5331, 5332, 5353, 5352, 5772, 5773, 5794, 5793
4839, 5332, 5333, 5354, 5353, 5773, 5774, 5795, 5794
4840, 5333, 5334, 5355, 5354, 5774, 5775, 5796, 5795
4841, 5335, 5336, 5357, 5356, 5776, 5777, 5798, 5797
4842, 5336, 5337, 5358, 5357, 5777, 5778, 5799, 5798
4843, 5337, 5338, 5359, 5358, 5778, 5779, 5800, 5799
4844, 5338, 5339, 5360, 5359, 5779, 5780, 5801, 5800
4845, 5339, 5340, 5361, 5360, 5780, 5781, 5802, 5801
4846, 5340, 5341, 5362, 5361, 5781, 5782, 5803, 5802
4847, 5341, 5342, 5363, 5362, 5782, 5783, 5804, 5803
4848, 5342, 5343, 5364, 5363, 5783, 5784, 5805, 5804
4849, 5343, 5344, 5365, 5364, 5784, 5785, 5806, 5805
4850, 5344, 5345, 5366, 5365, 5785, 5786, 5807, 5806
4851, 5345, 5346, 5367, 5366, 5786, 5787, 5808, 5807
4852, 5346, 5347, 5368, 5367, 5787, 5788, 5809, 5808
4853, 5347, 5348, 5369, 5368, 5788, 5789, 5810, 5809
4854, 5348, 5349, 5370, 5369, 5789, 5790, 5811, 5810
4855, 5349, 5350, 5371, 5370, 5790, 5791, 5812, 5811
4856, 5350, 5351, 5372, 5371, 5791, 5792, 5813, 5812
4857, 5351, 5352, 5373, 5372, 5792, 5793, 5814, 5813
4858, 5352, 5353, 5374, 5373, 5793, 5794, 5815, 5814
4859, 5353, 5354, 5375, 5374, 5794, 5795, 5816, 5815
4860, 5354, 5355, 5376, 5375, 5795, 5796, 5817, 5816
4861, 5356, 5357, 5378, 5377, 5797, 5798, 5819, 5818
4862, 5357, 5358, 5379, 5378, 5798, 5799, 5820, 5819
4863, 5358, 5359, 5380, 5379, 5799, 5800, 5821, 5820
4864, 5359, 5360, 5381, 5380, 5800, 5801, 5822, 5821
4865, 5360, 5361, 5382, 5381, 5801, 5802, 5823, 5822
4866, 5361, 5362, 5383, 5382, 5802, 5803, 5824, 5823
4867, 5362, 5363, 5384, 5383, 5803, 5804, 5825, 5824
4868, 5363, 5364, 5385, 5384, 5804, 5805, 5826, 5825
4869, 5364, 5365, 5386, 5385, 5805, 5806, 5827, 5826
4870, 5365, 5366, 5387, 5386, 5806, 5807, 5828, 5827
4871, 5366, 5367, 5388, 5387, 5807, 5808, 5829, 5828
4872, 5367, 5368, 5389, 5388, 5808, 5809, 5830, 5829
4873, 5368, 5369, 5390, 5389, 5809, 5810, 5831, 5830
4874, 5369, 5370, 5391, 5390, 5810, 5811, 5832, 5831
4875, 5370, 5371, 5392, 5391, 5811, 5812, 5833, 5832
4876, 5371, 5372, 5393, 5392, 5812, 5813, 5834, 5833
4877, 5372, 5373, 5394, 5393, 5813, 5814, 5835, 5834
4878, 5373, 5374, 5395, 5394, 5814, 5815, 5836, 5835
4879, 5374, 5375, 5396, 5395, 5815, 5816, 5837, 5836
4880, 5375, 5376, 5397, 5396, 5816, 5817, 5838, 5837
4881, 5377, 5378, 5399, 5398, 5818, 5819, 5840, 5839
4882, 5378, 5379, 5400, 5399, 5819, 5820, 5841, 5840
4883, 5379, 5380, 5401, 5400, 5820, 5821, 5842, 5841
4884, 5380, 5381, 5402, 5401, 5821, 5822, 5843, 5842
4885, 5381, 5382, 5403, 5402, 5822, 5823, 5844, 5843
4886, 5382, 5383, 5404, 5403, 5823, 5824, 5845, 5844
4887, 5383, 5384, 5405, 5404, 5824, 5825, 5846, 5845
4888, 5384, 5385, 5406, 5405, 5825, 5826, 5847, 5846
4889, 5385, 5386, 5407, 5406, 5826, 5827, 5848, 5847
4890, 5386, 5387, 5408, 5407, 5827, 5828, 5849, 5848
4891, 5387, 5388, 5409, 5408, 5828, 5829, 5850, 5849
4892, 5388, 5389, 5410, 5409, 5829, 5830, 5851, 5850
4893, 5389, 5390, 5411, 5410, 5830, 5831, 5852, 5851
4894, 5390, 5391, 5412, 5411, 5831, 5832, 5853, 5852
4895, 5391, 5392, 5413, 5412, 5832, 5833, 5854, 5853
4896, 5392, 5393, 5414, 5413, 5833, 5834, 5855, 5854
4897, 5393, 5394, 5415, 5414, 5834, 5835, 5856, 5855
4898, 5394, 5395, 5416, 5415, 5835, 5836, 5857, 5856
4899, 5395, 5396, 5417, 5416, 5836, 5837, 5858, 5857
4900, 5396, 5397, 5418, 5417, 5837, 5838, 5859, 5858
4901, 5398, 5399, 5420, 5419, 5839, 5840, 5861, 5860
4902, 5399, 5400, 5421, 5420, 5840, 5841, 5862, 5861
4903, 5400, 5401, 5422, 5421, 5841, 5842, 5863, 5862
4904, 5401, 5402, 5423, 5422, 5842, 5843, 5864, 5863
4905, 5402, 5403, 5424, 5423, 5843, 5844, 5865, 5864
4906, 5403, 5404, 5425, 5424, 5844, 5845, 5866, 5865
4907, 5404, 5405, 5426, 5425, 5845, 5846, 5867, 5866
4908, 5405, 5406, 5427, 5426, 5846, 5847, 5868, 5867
4909, 5406, 5407, 5428, 5427, 5847, 5848, 5869, 5868
4910, 5407, 5408, 5429, 5428, 5848, 5849, 5870, 5869
4911, 5408, 5409, 5430, 5429, 5849, 5850, 5871, 5870
4912, 5409, 5410, 5431, 5430, 5850, 5851, 5872, 5871
4913, 5410, 5411, 5432, 5431, 5851, 5852, 5873, 5872
4914, 5411, 5412, 5433, 5432, 5852, 5853, 5874, 5873
4915, 5412, 5413, 5434, 5433, 5853, 5854, 5875, 5874
4916, 5413, 5414, 5435, 5434, 5854, 5855, 5876, 5875
4917, 5414, 5415, 5436, 5435, 5855, 5856, 5877, 5876
4918, 5415, 5416, 5437, 5436, 5856, 5857, 5878, 5877
4919, 5416, 5417, 5438, 5437, 5857, 5858, 5879, 5878
4920, 5417, 5418, 5439, 5438, 5858, 5859, 5880, 5879
4921, 5419, 5420, 5441, 5440, 5860, 5861, 5882, 5881
4922, 5420, 5421, 5442, 5441, 5861, 5862, 5883, 5882
4923, 5421, 5422, 5443, 5442, 5862, 5863, 5884, 5883
4924, 5422, 5423, 5444, 5443, 5863, 5864, 5885, 5884
4925, 5423, 5424, 5445, 5444, 5864, 5865, 5886, 5885
4926, 5424, 5425, 5446, 5445, 5865, 5866, 5887, 5886
4927, 5425, 5426, 5447, 5446, 5866, 5867, 5888, 5887
4928, 5426, 5427, 5448, 5447, 5867, 5868, 5889, 5888
4929, 5427, 5428, 5449, 5448, 5868, 5869, 5890, 5889
4930, 5428, 5429, 5450, 5449, 5869, 5870, 5891, 5890
4931, 5429, 5430, 5451, 5450, 5870, 5871, 5892, 5891
4932, 5430, 5431, 5452, 5451, 5871, 5872, 5893, 5892
4933, 5431, 5432, 5453, 5452, 5872, 5873, 5894, 5893
4934, 5432, 5433, 5454, 5453, 5873, 5874, 5895, 5894
4935, 5433, 5434, 5455, 5454, 5874, 5875, 5896, 5895
4936, 5434, 5435, 5456, 5455, 5875, 5876, 5897, 5896
4937, 5435, 5436, 5457, 5456, 5876, 5877, 5898, 5897
4938, 5436, 5437, 5458, 5457, 5877, 5878, 5899, 5898
4939, 5437, 5438, 5459, 5458, 5878, 5879, 5900, 5899
4940, 5438, 5439, 5460, 5459, 5879, 5880, 5901, 5900
4941, 5440, 5441, 5462, 5461, 5881, 5882, 5903, 5902
4942, 5441, 5442, 5463, 5462, 5882, 5883, 5904, 5903
4943, 5442, 5443, 5464, 5463, 5883, 5884, 5905, 5904
4944, 5443, 5444, 5465, 5464, 5884, 5885, 5906, 5905
4945, 5444, 5445, 5466, 5465, 5885, 5886, 5907, 5906
4946, 5445, 5446, 5467, 5466, 5886, 5887, 5908, 5907
4947, 5446, 5447, 5468, 5467, 5887, 5888, 5909, 5908
4948, 5447, 5448, 5469, 5468, 5888, 5889, 5910, 5909
4949, 5448, 5449, 5470, 5469, 5889, 5890, 5911, 5910
4950, 5449, 5450, 5471, 5470, 5890, 5891, 5912, 5911
4951, 5450, 5451, 5472, 5471, 5891, 5892, 5913, 5912
4952, 5451, 5452, 5473, 5472, 5892, 5893, 5914, 5913
4953, 5452, 5453, 5474, 5473, 5893, 5894, 5915, 5914
4954, 5453, 5454, 5475, 5474, 5894, 5895, 5916, 5915
4955, 5454, 5455, 5476, 5475, 5895, 5896, 5917, 5916
4956, 5455, 5456, 5477, 5476, 5896, 5897, 5918, 5917
4957, 5456, 5457, 5478, 5477, 5897, 5898, 5919, 5918
4958, 5457, 5458, 5479, 5478, 5898, 5899, 5920, 5919
4959, 5458, 5459, 5480, 5479, 5899, 5900, 5921, 5920
4960, 5459, 5460, 5481, 5480, 5900, 5901, 5922, 5921
4961, 5461, 5462, 5483, 5482, 5902, 5903, 5924, 5923
4962, 5462, 5463, 5484, 5483, 5903, 5904, 5925, 5924
4963, 5463, 5464, 5485, 5484, 5904, 5905, 5926, 5925
4964, 5464, 5465, 5486, 5485, 5905, 5906, 5927, 5926
4965, 5465, 5466, 5487, 5486, 5906, 5907, 5928, 5927
4966, 5466, 5467, 5488, 5487, 5907, 5908, 5929, 5928
4967, 5467, 5468, 5489, 5488, 5908, 5909, 5930, 5929
4968, 5468, 5469, 5490, 5489, 5909, 5910, 5931, 5930
4969, 5469, 5470, 5491, 5490, 5910, 5911, 5932, 5931
4970, 5470, 5471, 5492, 5491, 5911, 5912, 5933, 5932
4971, 5471, 5472, 5493, 5492, 5912, 5913, 5934, 5933
4972, 5472, 5473, 5494, 5493, 5913, 5914, 5935, 5934
4973, 5473, 5474, 5495, 5494, 5914, 5915, 5936, 5935
4974, 5474, 5475, 5496, 5495, 5915, 5916, 5937, 5936
4975, 5475, 5476, 5497, 5496, 5916, 5917, 5938, 5937
4976, 5476, 5477, 5498, 5497, 5917, 5918, 5939, 5938
4977, 5477, 5478, 5499, 5498, 5918, 5919, 5940, 5939
4978, 5478, 5479, 5500, 5499, 5919, 5920, 5941, 5940
4979, 5479, 5480, 5501, 5500, 5920, 5921, 5942, 5941
4980, 5480, 5481, 5502, 5501, 5921, 5922, 5943, 5942
4981, 5482, 5483, 5504, 5503, 5923, 5924, 5945, 5944
4982, 5483, 5484, 5505, 5504, 5924, 5925, 5946, 5945
4983, 5484, 5485, 5506, 5505, 5925, 5926, 5947, 5946
4984, 5485, 5486, 5507, 5506, 5926, 5927, 5948, 5947
4985, 5486, 5487, 5508, 5507, 5927, 5928, 5949, 5948
4986, 5487, 5488, 5509, 5508, 5928, 5929, 5950, 5949
4987, 5488, 5489, 5510, 5509, 5929, 5930, 5951, 5950
4988, 5489, 5490, 5511, 5510, 5930, 5931, 5952, 5951
4989, 5490, 5491, 5512, 5511, 5931, 5932, 5953, 5952
4990, 5491, 5492, 5513, 5512, 5932, 5933, 5954, 5953
4991, 5492, 5493, 5514, 5513, 5933, 5934, 5955, 5954
4992, 5493, 5494, 5515, 5514, 5934, 5935, 5956, 5955
4993, 5494, 5495, 5516, 5515, 5935, 5936, 5957, 5956
4994, 5495, 5496, 5517, 5516, 5936, 5937, 5958, 5957
4995, 5496, 5497, 5518, 5517, 5937, 5938, 5959, 5958
4996, 5497, 5498, 5519, 5518, 5938, 5939, 5960, 5959
4997, 5498, 5499, 5520, 5519, 5939, 5940, 5961, 5960
4998, 5499, 5500, 5521, 5520, 5940, 5941, 5962, 5961
4999, 5500, 5501, 5522, 5521, 5941, 5942, 5963, 5962
5000, 5501, 5502, 5523, 5522, 5942, 5943, 5964, 5963
5001, 5503, 5504, 5525, 5524, 5944, 5945, 5966, 5965
5002, 5504, 5505, 5526, 5525, 5945, 5946, 5967, 5966
5003, 5505, 5506, 5527, 5526, 5946, 5947, 5968, 5967
5004, 5506, 5507, 5528, 5527, 5947, 5948, 5969, 5968
5005, 5507, 5508, 5529, 5528, 5948, 5949, 5970, 5969
5006, 5508, 5509, 5530, 5529, 5949, 5950, 5971, 5970
5007, 5509, 5510, 5531, 5530, 5950, 5951, 5972, 5971
5008, 5510, 5511, 5532, 5531, 5951, 5952, 5973, 5972
5009, 5511, 5512, 5533, 5532, 5952, 5953, 5974, 5973
5010, 5512, 5513, 5534, 5533, 5953, 5954, 5975, 5974
5011, 5513, 5514, 5535, 5534, 5954, 5955, 5976, 5975
5012, 5514, 5515, 5536, 5535, 5955, 5956, 5977, 5976
5013, 5515, 5516, 5537, 5536, 5956, 5957, 5978, 5977
5014, 5516, 5517, 5538, 5537, 5957, 5958, 5979, 5978
5015, 5517, 5518, 5539, 5538, 5958, 5959, 5980, 5979
5016, 5518, 5519, 5540, 5539, 5959, 5960, 5981, 5980
5017, 5519, 5520, 5541, 5540, 5960, 5961, 5982, 5981
5018, 5520, 5521, 5542, 5541, 5961, 5962, 5983, 5982
5019, 5521, 5522, 5543, 5542, 5962, 5963, 5984, 5983
5020, 5522, 5523, 5544, 5543, 5963, 5964, 5985, 5984
5021, 5524, 5525, 5546, 5545, 5965, 5966, 5987, 5986
5022, 5525, 5526, 5547, 5546, 5966, 5967, 5988, 5987
5023, 5526, 5527, 5548, 5547, 5967, 5968, 5989, 5988
5024, 5527, 5528, 5549, 5548, 5968, 5969, 5990, 5989
5025, 5528, 5529, 5550, 5549, 5969, 5970, 5991, 5990
5026, 5529, 5530, 5551, 5550, 5970, 5971, 5992, 5991
5027, 5530, 5531, 5552, 5551, 5971, 5972, 5993, 5992
5028, 5531, 5532, 5553, 5552, 5972, 5973, 5994, 5993
5029, 5532, 5533, 5554, 5553, 5973, 5974, 5995, 5994
5030, 5533, 5534, 5555, 5554, 5974, 5975, 5996, 5995
5031, 5534, 5535, 5556, 5555, 5975, 5976, 5997, 5996
5032, 5535, 5536, 5557, 5556, 5976, 5977, 5998, 5997
5033, 5536, 5537, 5558, 5557, 5977, 5978, 5999, 5998
5034, 5537, 5538, 5559, 5558, 5978, 5979, 6000, 5999
5035, 5538, 5539, 5560, 5559, 5979, 5980, 6001, 6000
5036, 5539, 5540, 5561, 5560, 5980, 5981, 6002, 6001
5037, 5540, 5541, 5562, 5561, 5981, 5982, 6003, 6002
5038, 5541, 5542, 5563, 5562, 5982, 5983, 6004, 6003
5039, 5542, 5543, 5564, 5563, 5983, 5984, 6005, 6004
5040, 5543, 5544, 5565, 5564, 5984, 5985, 6006, 6005
5041, 5545, 5546, 5567, 5566, 5986, 5987, 6008, 6007
5042, 5546, 5547, 5568, 5567, 5987, 5988, 6009, 6008
5043, 5547, 5548, 5569, 5568, 5988, 5989, 6010, 6009
5044, 5548, 5549, 5570, 5569, 5989, 5990, 6011, 6010
5045, 5549, 5550, 5571, 5570, 5990, 5991, 6012, 6011
5046, 5550, 5551, 5572, 5571, 5991, 5992, 6013, 6012
5047, 5551, 5552, 5573, 5572, 5992, 5993, 6014, 6013
5048, 5552, 5553, 5574, 5573, 5993, 5994, 6015, 6014
5049, 5553, 5554, 5575, 5574, 5994, 5995, 6016, 6015
5050, 5554, 5555, 5576, 5575, 5995, 5996, 6017, 6016
5051, 5555, 5556, 5577, 5576, 5996, 5997, 6018, 6017
5052, 5556, 5557, 5578, 5577, 5997, 5998, 6019, 6018
5053, 5557, 5558, 5579, 5578, 5998, 5999, 6020, 6019
5054, 5558, 5559, 5580, 5579, 5999, 6000, 6021, 6020
5055, 5559, 5560, 5581, 5580, 6000, 6001, 6022, 6021
5056, 5560, 5561, 5582, 5581, 6001, 6002, 6023, 6022
5057, 5561, 5562, 5583, 5582, 6002, 6003, 6024, 6023
5058, 5562, 5563, 5584, 5583, 6003, 6004, 6025, 6024
5059, 5563, 5564, 5585, 5584, 6004, 6005, 6026, 6025
5060, 5564, 5565, 5586, 5585, 6005, 6006, 6027, 6026
5061, 5566, 5567, 5588, 5587, 6007, 6008, 6029, 6028
5062, 5567, 5568, 5589, 5588, 6008, 6009, 6030, 6029
5063, 5568, 5569, 5590, 5589, 6009, 6010, 6031, 6030
5064, 5569, 5570, 5591, 5590, 6010, 6011, 6032, 6031
5065, 5570, 5571, 5592, 5591, 6011, 6012, 6033, 6032
5066, 5571, 5572, 5593, 5592, 6012, 6013, 6034, 6033
5067, 5572, 5573, 5594, 5593, 6013, 6014, 6035, 6034
5068, 5573, 5574, 5595, 5594, 6014, 6015, 6036, 6035
5069, 5574, 5575, 5596, 5595, 6015, 6016, 6037, 6036
5070, 5575, 5576, 5597, 5596, 6016, 6017, 6038, 6037
5071, 5576, 5577, 5598, 5597, 6017, 6018, 6039, 6038
5072, 5577, 5578, 5599, 5598, 6018, 6019, 6040, 6039
5073, 5578, 5579, 5600, 5599, 6019, 6020, 6041, 6040
5074, 5579, 5580, 5601, 5600, 6020, 6021, 6042, 6041
5075, 5580, 5581, 5602, 5601, 6021, 6022, 6043, 6042
5076, 5581, 5582, 5603, 5602, 6022, 6023, 6044, 6043
5077, 5582, 5583, 5604, 5603, 6023, 6024, 6045, 6044
5078, 5583, 5584, 5605, 5604, 6024, 6025, 6046, 6045
5079, 5584, 5585, 5606, 5605, 6025, 6026, 6047, 6046
5080, 5585, 5586, 5607, 5606, 6026, 6027, 6048, 6047
5081, 5587, 5588, 5609, 5608, 6028, 6029, 6050, 6049
5082, 5588, 5589, 5610, 5609, 6029, 6030, 6051, 6050
5083, 5589, 5590, 5611, 5610, 6030, 6031, 6052, 6051
5084, 5590, 5591, 5612, 5611, 6031, 6032, 6053, 6052
5085, 5591, 5592, 5613, 5612, 6032, 6033, 6054, 6053
5086, 5592, 5593, 5614, 5613, 6033, 6034, 6055, 6054
5087, 5593, 5594, 5615, 5614, 6034, 6035, 6056, 6055
5088, 5594, 5595, 5616, 5615, 6035, 6036, 6057, 6056
5089, 5595, 5596, 5617, 5616, 6036, 6037, 6058, 6057
5090, 5596, 5597, 5618, 5617, 6037, 6038, 6059, 6058
5091, 5597, 5598, 5619, 5618, 6038, 6039, 6060, 6059
5092, 5598, 5599, 5620, 5619, 6039, 6040, 6061, 6060
5093, 5599, 5600, 5621, 5620, 6040, 6041, 6062, 6061
5094, 5600, 5601, 5622, 5621, 6041, 6042, 6063, 6062
5095, 5601, 5602, 5623, 5622, 6042, 6043, 6064, 6063
5096, 5602, 5603, 5624, 5623, 6043, 6044, 6065, 6064
5097, 5603, 5604, 5625, 5624, 6044, 6045, 6066, 6065
5098, 5604, 5605, 5626, 5625, 6045, 6046, 6067, 6066
5099, 5605, 5606, 5627, 5626, 6046, 6047, 6068, 6067
5100, 5606, 5607, 5628, 5627, 6047, 6048, 6069, 6068
5101, 5608, 5609, 5630, 5629, 6049, 6050, 6071, 6070
5102, 5609, 5610, 5631, 5630, 6050, 6051, 6072, 6071
5103, 5610, 5611, 5632, 5631, 6051, 6052, 6073, 6072
5104, 5611, 5612, 5633, 5632, 6052, 6053, 6074, 6073
5105, 5612, 5613, 5634, 5633, 6053, 6054, 6075, 6074
5106, 5613, 5614, 5635, 5634, 6054, 6055, 6076, 6075
5107, 5614, 5615, 5636, 5635, 6055, 6056, 6077, 6076
5108, 5615, 5616, 5637, 5636, 6056, 6057, 6078, 6077
5109, 5616, 5617, 5638, 5637, 6057, 6058, 6079, 6078
5110, 5617, 5618, 5639, 5638, 6058, 6059, 6080, 6079
5111, 5618, 5619, 5640, 5639, 6059, 6060, 6081, 6080
5112, 5619, 5620, 5641, 5640, 6060, 6061, 6082, 6081
5113, 5620, 5621, 5642, 5641, 6061, 6062, 6083, 6082
5114, 5621, 5622, 5643, 5642, 6062, 6063, 6084, 6083
5115, 5622, 5623, 5644, 5643, 6063, 6064, 6085, 6084
5116, 5623, 5624, 5645, 5644, 6064, 6065, 6086, 6085
5117, 5624, 5625, 5646, 5645, 6065, 6066, 6087, 6086
5118, 5625, 5626, 5647, 5646, 6066, 6067, 6088, 6087
5119, 5626, 5627, 5648, 5647, 6067, 6068, 6089, 6088
5120, 5627, 5628, 5649, 5648, 6068, 6069, 6090, 6089
5121, 5629, 5630, 5651, 5650, 6070, 6071, 6092, 6091
5122, 5630, 5631, 5652, 5651, 6071, 6072, 6093, 6092
5123, 5631, 5632, 5653, 5652, 6072, 6073, 6094, 6093
5124, 5632, 5633, 5654, 5653, 6073, 6074, 6095, 6094
5125, 5633, 5634, 5655, 5654, 6074, 6075, 6096, 6095
5126, 5634, 5635, 5656, 5655, 6075, 6076, 6097, 6096
5127, 5635, 5636, 5657, 5656, 6076, 6077, 6098, 6097
5128, 5636, 5637, 5658, 5657, 6077, 6078, 6099, 6098
5129, 5637, 5638, 5659, 5658, 6078, 6079, 6100, 6099
5130, 5638, 5639, 5660, 5659, 6079, 6080, 6101, 6100
5131, 5639, 5640, 5661, 5660, 6080, 6081, 6102, 6101
5132, 5640, 5641, 5662, 5661, 6081, 6082, 6103, 6102
5133, 5641, 5642, 5663, 5662, 6082, 6083, 6104, 6103
5134, 5642, 5643, 5664, 5663, 6083, 6084, 6105, 6104
5135, 5643, 5644, 5665, 5664, 6084, 6085, 6106, 6105
5136, 5644, 5645, 5666, 5665, 6085, 6086, 6107, 6106
5137, 5645, 5646, 5667, 5666, 6086, 6087, 6108, 6107
5138, 5646, 5647, 5668, 5667, 6087, 6088, 6109, 6108
5139, 5647, 5648, 5669, 5668, 6088, 6089, 6110, 6109
5140, 5648, 5649, 5670, 5669, 6089, 6090, 6111, 6110
5141, 5650, 5651, 5672, 5671, 6091, 6092, 6113, 6112
5142, 5651, 5652, 5673, 5672, 6092, 6093, 6114, 6113
5143, 5652, 5653, 5674, 5673, 6093, 6094, 6115, 6114
5144, 5653, 5654, 5675, 5674, 6094, 6095, 6116, 6115
5145, 5654, 5655, 5676, 5675, 6095, 6096, 6117, 6116
5146, 5655, 5656, 5677, 5676, 6096, 6097, 6118, 6117
5147, 5656, 5657, 5678, 5677, 6097, 6098, 6119, 6118
5148, 5657, 5658, 5679, 5678, 6098, 6099, 6120, 6119
5149, 5658, 5659, 5680, 5679, 6099, 6100, 6121, 6120
5150, 5659, 5660, 5681, 5680, 6100, 6101, 6122, 6121
5151, 5660, 5661, 5682, 5681, 6101, 6102, 6123, 6122
5152, 5661, 5662, 5683, 5682, 6102, 6103, 6124, 6123
5153, 5662, 5663, 5684, 5683, 6103, 6104, 6125, 6124
5154, 5663, 5664, 5685, 5684, 6104, 6105, 6126, 6125
5155, 5664, 5665, 5686, 5685, 6105, 6106, 6127, 6126
5156, 5665, 5666, 5687, 5686, 6106, 6107, 6128, 6127
5157, 5666, 5667, 5688, 5687, 6107, 6108, 6129, 6128
5158, 5667, 5668, 5689, 5688, 6108, 6109, 6130, 6129
5159, 5668, 5669, 5690, 5689, 6109, 6110, 6131, 6130
5160, 5669, 5670, 5691, 5690, 6110, 6111, 6132, 6131
5161, 5671, 5672, 5693, 5692, 6112, 6113, 6134, 6133
5162, 5672, 5673, 5694, 5693, 6113, 6114, 6135, 6134
5163, 5673, 5674, 5695, 5694, 6114, 6115, 6136, 6135
5164, 5674, 5675, 5696, 5695, 6115, 6116, 6137, 6136
5165, 5675, 5676, 5697, 5696, 6116, 6117, 6138, 6137
5166, 5676, 5677, 5698, 5697, 6117, 6118, 6139, 6138
5167, 5677, 5678, 5699, 5698, 6118, 6119, 6140, 6139
5168, 5678, 5679, 5700, 5699, 6119, 6120, 6141, 6140
5169, 5679, 5680, 5701, 5700, 6120, 6121, 6142, 6141
5170, 5680, 5681, 5702, 5701, 6121, 6122, 6143, 6142
5171, 5681, 5682, 5703, 5702, 6122, 6123, 6144, 6143
5172, 5682, 5683, 5704, 5703, 6123, 6124, 6145, 6144
5173, 5683, 5684, 5705, 5704, 6124, 6125, 6146, 6145
5174, 5684, 5685, 5706, 5705, 6125, 6126, 6147, 6146
5175, 5685, 5686, 5707, 5706, 6126, 6127, 6148, 6147
5176, 5686, 5687, 5708, 5707, 6127, 6128, 6149, 6148
5177, 5687, 5688, 5709, 5708, 6128, 6129, 6150, 6149
5178, 5688, 5689, 5710, 5709, 6129, 6130, 6151, 6150
5179, 5689, 5690, 5711, 5710, 6130, 6131, 6152, 6151
5180, 5690, 5691, 5712, 5711, 6131, 6132, 6153, 6152
5181, 5692, 5693, 5714, 5713, 6133, 6134, 6155, 6154
5182, 5693, 5694, 5715, 5714, 6134, 6135, 6156, 6155
5183, 5694, 5695, 5716, 5715, 6135, 6136, 6157, 6156
5184, 5695, 5696, 5717, 5716, 6136, 6137, 6158, 6157
5185, 5696, 5697, 5718, 5717, 6137, 6138, 6159, 6158
5186, 5697, 5698, 5719, 5718, 6138, 6139, 6160, 6159
5187, 5698, 5699, 5720, 5719, 6139, 6140, 6161, 6160
5188, 5699, 5700, 5721, 5720, 6140, 6141, 6162, 6161
5189, 5700, 5701, 5722, 5721, 6141, 6142, 6163, 6162
5190, 5701, 5702, 5723, 5722, 6142, 6143, 6164, 6163
5191, 5702, 5703, 5724, 5723, 6143, 6144, 6165, 6164
5192, 5703, 5704, 5725, 5724, 6144, 6145, 6166, 6165
5193, 5704, 5705, 5726, 5725, 6145, 6146, 6167, 6166
5194, 5705, 5706, 5727, 5726, 6146, 6147, 6168, 6167
5195, 5706, 5707, 5728, 5727, 6147, 6148, 6169, 6168
5196, 5707, 5708, 5729, 5728, 6148, 6149, 6170, 6169
5197, 5708, 5709, 5730, 5729, 6149, 6150, 6171, 6170
5198, 5709, 5710, 5731, 5730, 6150, 6151, 6172, 6171
5199, 5710, 5711, 5732, 5731, 6151, 6152, 6173, 6172
5200, 5711, 5712, 5733, 5732, 6152, 6153, 6174, 6173
5201, 5734, 5735, 5756, 5755, 6175, 6176, 6197, 6196
5202, 5735, 5736, 5757, 5756, 6176, 6177, 6198, 6197
5203, 5736, 5737, 5758, 5757, 6177, 6178, 6199, 6198
5204, 5737, 5738, 5759, 5758, 6178, 6179, 6200, 6199
5205, 5738, 5739, 5760, 5759, 6179, 6180, 6201, 6200
5206, 5739, 5740, 5761, 5760, 6180, 6181, 6202, 6201
5207, 5740, 5741, 5762, 5761, 6181, 6182, 6203, 6202
5208, 5741, 5742, 5763, 5762, 6182, 6183, 6204, 6203
5209, 5742, 5743, 5764, 5763, 6183, 6184, 6205, 6204
5210, 5743, 5744, 5765, 5764, 6184, 6185, 6206, 6205
5211, 5744, 5745, 5766, 5765, 6185, 6186, 6207, 6206
5212, 5745, 5746, 5767, 5766, 6186, 6187, 6208, 6207
5213, 5746, 5747, 5768, 5767, 6187, 6188, 6209, 6208
5214, 5747, 5748, 5769, 5768, 6188, 6189, 6210, 6209
5215, 5748, 5749, 5770, 5769, 6189, 6190, 6211, 6210
5216, 5749, 5750, 5771, 5770, 6190, 6191, 6212, 6211
5217, 5750, 5751, 5772, 5771, 6191, 6192, 6213, 6212
5218, 5751, 5752, 5773, 5772, 6192, 6193, 6214, 6213
5219, 5752, 5753, 5774, 5773, 6193, 6194, 6215, 6214
5220, 5753, 5754, 5775, 5774, 6194, 6195, 6216, 6215
5221, 5755, 5756, 5777, 5776, 6196, 6197, 6218, 6217
5222, 5756, 5757, 5778, 5777, 6197, 6198, 6219, 6218
5223, 5757, 5758, 5779, 5778, 6198, 6199, 6220, 6219
5224, 5758, 5759, 5780, 5779, 6199, 6200, 6221, 6220
5225, 5759, 5760, 5781, 5780, 6200, 6201, 6222, 6221
5226, 5760, 5761, 5782, 5781, 6201, 6202, 6223, 6222
5227, 5761, 5762, 5783, 5782, 6202, 6203, 6224, 6223
5228, 5762, 5763, 5784, 5783, 6203, 6204, 6225, 6224
5229, 5763, 5764, 5785, 5784, 6204, 6205, 6226, 6225
5230, 5764, 5765, 5786, 5785, 6205, 6206, 6227, 6226
5231, 5765, 5766, 5787, 5786, 6206, 6207, 6228, 6227
5232, 5766, 5767, 5788, 5787, 6207, 6208, 6229, 6228
5233, 5767, 5768, 5789, 5788, 6208, 6209, 6230, 6229
5234, 5768, 5769, 5790, 5789, 6209, 6210, 6231, 6230
5235, 5769, 5770, 5791, 5790, 6210, 6211, 6232, 6231
5236, 5770, 5771, 5792, 5791, 6211, 6212, 6233, 6232
5237, 5771, 5772, 5793, 5792, 6212, 6213, 6234, 6233
5238, 5772, 5773, 5794, 5793, 6213, 6214, 6235, 6234
5239, 5773, 5774, 5795, 5794, 6214, 6215, 6236, 6235
5240, 5774, 5775, 5796, 5795, 6215, 6216, 6237, 6236
5241, 5776, 5777, 5798, 5797, 6217, 6218, 6239, 6238
5242, 5777, 5778, 5799, 5798, 6218, 6219, 6240, 6239
5243, 5778, 5779, 5800, 5799, 6219, 6220, 6241, 6240
5244, 5779, 5780, 5801, 5800, 6220, 6221, 6242, 6241
5245, 5780, 5781, 5802, 5801, 6221, 6222, 6243, 6242
5246, 5781, 5782, 5803, 5802, 6222, 6223, 6244, 6243
5247, 5782, 5783, 5804, 5803, 6223, 6224, 6245, 6244
5248, 5783, 5784, 5805, 5804, 6224, 6225, 6246, 6245
5249, 5784, 5785, 5806, 5805, 6225, 6226, 6247, 6246
5250, 5785, 5786, 5807, 5806, 6226, 6227, 6248, 6247
5251, 5786, 5787, 5808, 5807, 6227, 6228, 6249, 6248
5252, 5787, 5788, 5809, 5808, 6228, 6229, 6250, 6249
5253, 5788, 5789, 5810, 5809, 6229, 6230, 6251, 6250
5254, 5789, 5790, 5811, 5810, 6230, 6231, 6252, 6251
5255, 5790, 5791, 5812, 5811, 6231, 6232, 6253, 6252
5256, 5791, 5792, 5813, 5812, 6232, 6233, 6254, 6253
5257, 5792, 5793, 5814, 5813, 6233, 6234, 6255, 6254
5258, 5793, 5794, 5815, 5814, 6234, 6235, 6256, 6255
5259, 5794, 5795, 5816, 5815, 6235, 6236, 6257, 6256
5260, 5795, 5796, 5817, 5816, 6236, 6237, 6258, 6257
5261, 5797, 5798, 5819, 5818, 6238, 6239, 6260, 6259
5262, 5798, 5799, 5820, 5819, 6239, 6240, 6261, 6260
5263, 5799, 5800, 5821, 5820, 6240, 6241, 6262, 6261
5264, 5800, 5801, 5822, 5821, 6241, 6242, 6263, 6262
5265, 5801, 5802, 5823, 5822, 6242, 6243, 6264, 6263
5266, 5802, 5803, 5824, 5823, 6243, 6244, 6265, 6264
5267, 5803, 5804, 5825, 5824, 6244, 6245, 6266, 6265
5268, 5804, 5805, 5826, 5825, 6245, 6246, 6267, 6266
5269, 5805, 5806, 5827, 5826, 6246, 6247, 6268, 6267
5270, 5806, 5807, 5828, 5827, 6247, 6248, 6269, 6268
5271, 5807, 5808, 5829, 5828, 6248, 6249, 6270, 6269
5272, 5808, 5809, 5830, 5829, 6249, 6250, 6271, 6270
5273, 5809, 5810, 5831, 5830, 6250, 6251, 6272, 6271
5274, 5810, 5811, 5832, 5831, 6251, 6252, 6273, 6272
5275, 5811, 5812, 5833, 5832, 6252, 6253, 6274, 6273
5276, 5812, 5813, 5834, 5833, 6253, 6254, 6275, 6274
5277, 5813, 5814, 5835, 5834, 6254, 6255, 6276, 6275
5278, 5814, 5815, 5836, 5835, 6255, 6256, 6277, 6276
5279, 5815, 5816, 5837, 5836, 6256, 6257, 6278, 6277
5280, 5816, 5817, 5838, 5837, 6257, 6258, 6279, 6278
5281, 5818, 5819, 5840, 5839, 6259, 6260, 6281, 6280
5282, 5819, 5820, 5841, 5840, 6260, 6261, 6282, 6281
5283, 5820, 5821, 5842, 5841, 6261, 6262, 6283, 6282
5284, 5821, 5822, 5843, 5842, 6262, 6263, 6284, 6283
5285, 5822, 5823, 5844, 5843, 6263, 6264, 6285, 6284
5286, 5823, 5824, 5845, 5844, 6264, 6265, 6286, 6285
5287, 5824, 5825, 5846, 5845, 6265, 6266, 6287, 6286
5288, 5825, 5826, 5847, 5846, 6266, 6267, 6288, 6287
5289, 5826, 5827, 5848, 5847, 6267, 6268, 6289, 6288
5290, 5827, 5828, 5849, 5848, 6268, 6269, 6290, 6289
5291, 5828, 5829, 5850, 5849, 6269, 6270, 6291, 6290
5292, 5829, 5830, 5851, 5850, 6270, 6271, 6292, 6291
5293, 5830, 5831, 5852, 5851, 6271, 6272, 6293, 6292
5294, 5831, 5832, 5853, 5852, 6272, 6273, 6294, 6293
5295, 5832, 5833, 5854, 5853, 6273, 6274, 6295, 6294
5296, 5833, 5834, 5855, 5854, 6274, 6275, 6296, 6295
5297, 5834, 5835, 5856, 5855, 6275, 6276, 6297, 6296
5298, 5835, 5836, 5857, 5856, 6276, 6277, 6298, 6297
5299, 5836, 5837, 5858, 5857, 6277, 6278, 6299, 6298
5300, 5837, 5838, 5859, 5858, 6278, 6279, 6300, 6299
5301, 5839, 5840, 5861, 5860, 6280, 6281, 6302, 6301
5302, 5840, 5841, 5862, 5861, 6281, 6282, 6303, 6302
5303, 5841, 5842, 5863, 5862, 6282, 6283, 6304, 6303
5304, 5842, 5843, 5864, 5863, 6283, 6284, 6305, 6304
5305, 5843, 5844, 5865, 5864, 6284, 6285, 6306, 6305
5306, 5844, 5845, 5866, 5865, 6285, 6286, 6307, 6306
5307, 5845, 5846, 5867, 5866, 6286, 6287, 6308, 6307
5308, 5846, 5847, 5868, 5867, 6287, 6288, 6309, 6308
5309, 5847, 5848, 5869, 5868, 6288, 6289, 6310, 6309
5310, 5848, 5849, 5870, 5869, 6289, 6290, 6311, 6310
5311, 5849, 5850, 5871, 5870, 6290, 6291, 6312, 6311
5312, 5850, 5851, 5872, 5871, 6291, 6292, 6313, 6312
5313, 5851, 5852, 5873, 5872, 6292, 6293, 6314, 6313
5314, 5852, 5853, 5874, 5873, 6293, 6294, 6315, 6314
5315, 5853, 5854, 5875, 5874, 6294, 6295, 6316, 6315
5316, 5854, 5855, 5876, 5875, 6295, 6296, 6317, 6316
5317, 5855, 5856, 5877, 5876, 6296, 6297, 6318, 6317
5318, 5856, 5857, 5878, 5877, 6297, 6298, 6319, 6318
5319, 5857, 5858, 5879, 5878, 6298, 6299, 6320, 6319
5320, 5858, 5859, 5880, 5879, 6299, 6300, 6321, 6320
5321, 5860, 5861, 5882, 5881, 6301, 6302, 6323, 6322
5322, 5861, 5862, 5883, 5882, 6302, 6303, 6324, 6323
5323, 5862, 5863, 5884, 5883, 6303, 6304, 6325, 6324
5324, 5863, 5864, 5885, 5884, 6304, 6305, 6326, 6325
5325, 5864, 5865, 5886, 5885, 6305, 6306, 6327, 6326
5326, 5865, 5866, 5887, 5886, 6306, 6307, 6328, 6327
5327, 5866, 5867, 5888, 5887, 6307, 6308, 6329, 6328
5328, 5867, 5868, 5889, 5888, 6308, 6309, 6330, 6329
5329, 5868, 5869, 5890, 5889, 6309, 6310, 6331, 6330
5330, 5869, 5870, 5891, 5890, 6310, 6311, 6332, 6331
5331, 5870, 5871, 5892, 5891, 6311, 6312, 6333, 6332
5332, 5871, 5872, 5893, 5892, 6312, 6313, 6334, 6333
5333, 5872, 5873, 5894, 5893, 6313, 6314, 6335, 6334
5334, 5873, 5874, 5895, 5894, 6314, 6315, 6336, 6335
5335, 5874, 5875, 5896, 5895, 6315, 6316, 6337, 6336
5336, 5875, 5876, 5897, 5896, 6316, 6317, 6338, 6337
5337, 5876, 5877, 5898, 5897, 6317, 6318, 6339, 6338
5338, 5877, 5878, 5899, 5898, 6318, 6319, 6340, 6339
5339, 5878, 5879, 5900, 5899, 6319, 6320, 6341, 6340
5340, 5879, 5880, 5901, 5900, 6320, 6321, 6342, 6341
5341, 5881, 5882, 5903, 5902, 6322, 6323, 6344, 6343
5342, 5882, 5883, 5904, 5903, 6323, 6324, 6345, 6344
5343, 5883, 5884, 5905, 5904, 6324, 6325, 6346, 6345
5344, 5884, 5885, 5906, 5905, 6325, 6326, 6347, 6346
5345, 5885, 5886, 5907, 5906, 6326, 6327, 6348, 6347
5346, 5886, 5887, 5908, 5907, 6327, 6328, 6349, 6348
5347, 5887, 5888, 5909, 5908, 6328, 6329, 6350, 6349
5348, 5888, 5889, 5910, 5909, 6329, 6330, 6351, 6350
5349, 5889, 5890, 5911, 5910, 6330, 6331, 6352, 6351
5350, 5890, 5891, 5912, 5911, 6331, 6332, 6353, 6352
5351, 5891, 5892, 5913, 5912, 6332, 6333, 6354, 6353
5352, 5892, 5893, 5914, 5913, 6333, 6334, 6355, 6354
5353, 5893, 5894, 5915, 5914, 6334, 6335, 6356, 6355
5354, 5894, 5895, 5916, 5915, 6335, 6336, 6357, 6356
5355, 5895, 5896, 5917, 5916, 6336, 6337, 6358, 6357
5356, 5896, 5897, 5918, 5917, 6337, 6338, 6359, 6358
5357, 5897, 5898, 5919, 5918, 6338, 6339, 6360, 6359
5358, 5898, 5899, 5920, 5919, 6339, 6340, 6361, 6360
5359, 5899, 5900, 5921, 5920, 6340, 6341, 6362, 6361
5360, 5900, 5901, 5922, 5921, 6341, 6342, 6363, 6362
5361, 5902, 5903, 5924, 5923, 6343, 6344, 6365, 6364
5362, 5903, 5904, 5925, 5924, 6344, 6345, 6366, 6365
5363, 5904, 5905, 5926, 5925, 6345, 6346, 6367, 6366
5364, 5905, 5906, 5927, 5926, 6346, 6347, 6368, 6367
5365, 5906, 5907, 5928, 5927, 6347, 6348, 6369, 6368
5366, 5907, 5908, 5929, 5928, 6348, 6349, 6370, 6369
5367, 5908, 5909, 5930, 5929, 6349, 6350, 6371, 6370
5368, 5909, 5910, 5931, 5930, 6350, 6351, 6372, 6371
5369, 5910, 5911, 5932, 5931, 6351, 6352, 6373, 6372
5370, 5911, 5912, 5933, 5932, 6352, 6353, 6374, 6373
5371, 5912, 5913, 5934, 5933, 6353, 6354, 6375, 6374
5372, 5913, 5914, 5935, 5934, 6354, 6355, 6376, 6375
5373, 5914, 5915, 5936, 5935, 6355, 6356, 6377, 6376
5374, 5915, 5916, 5937, 5936, 6356, 6357, 6378, 6377
5375, 5916, 5917, 5938, 5937, 6357, 6358, 6379, 6378
5376, 5917, 5918, 5939, 5938, 6358, 6359, 6380, 6379
5377, 5918, 5919, 5940, 5939, 6359, 6360, 6381, 6380
5378, 5919, 5920, 5941, 5940, 6360, 6361, 6382, 6381
5379, 5920, 5921, 5942, 5941, 6361, 6362, 6383, 6382
5380, 5921, 5922, 5943, 5942, 6362, 6363, 6384, 6383
5381, 5923, 5924, 5945, 5944, 6364, 6365, 6386, 6385
5382, 5924, 5925, 5946, 5945, 6365, 6366, 6387, 6386
5383, 5925, 5926, 5947, 5946, 6366, 6367, 6388, 6387
5384, 5926, 5927, 5948, 5947, 6367, 6368, 6389, 6388
5385, 5927, 5928, 5949, 5948, 6368, 6369, 6390, 6389
5386, 5928, 5929, 5950, 5949, 6369, 6370, 6391, 6390
5387, 5929, 5930, 5951, 5950, 6370, 6371, 6392, 6391
5388, 5930, 5931, 5952, 5951, 6371, 6372, 6393, 6392
5389, 5931, 5932, 5953, 5952, 6372, 6373, 6394, 6393
5390, 5932, 5933, 5954, 5953, 6373, 6374, 6395, 6394
5391, 5933, 5934, 5955, 5954, 6374, 6375, 6396, 6395
5392, 5934, 5935, 5956, 5955, 6375, 6376, 6397, 6396
5393, 5935, 5936, 5957, 5956, 6376, 6377, 6398, 6397
5394, 5936, 5937, 5958, 5957, 6377, 6378, 6399, 6398
5395, 5937, 5938, 5959, 5958, 6378, 6379, 6400, 6399
5396, 5938, 5939, 5960, 5959, 6379, 6380, 6401, 6400
5397, 5939, 5940, 5961, 5960, 6380, 6381, 6402, 6401
5398, 5940, 5941, 5962, 5961, 6381, 6382, 6403, 6402
5399, 5941, 5942, 5963, 5962, 6382, 6383, 6404, 6403
5400, 5942, 5943, 5964, 5963, 6383, 6384, 6405, 6404
5401, 5944, 5945, 5966, 5965, 6385, 6386, 6407, 6406
5402, 5945, 5946, 5967, 5966, 6386, 6387, 6408, 6407
5403, 5946, 5947, 5968, 5967, 6387, 6388, 6409, 6408
5404, 5947, 5948, 5969, 5968, 6388, 6389, 6410, 6409
5405, 5948, 5949, 5970, 5969, 6389, 6390, 6411, 6410
5406, 5949, 5950, 5971, 5970, 6390, 6391, 6412, 6411
5407, 5950, 5951, 5972, 5971, 6391, 6392, 6413, 6412
5408, 5951, 5952, 5973, 5972, 6392, 6393, 6414, 6413
5409, 5952, 5953, 5974, 5973, 6393, 6394, 6415, 6414
5410, 5953, 5954, 5975, 5974, 6394, 6395, 6416, 6415
5411, 5954, 5955, 5976, 5975, 6395, 6396, 6417, 6416
5412, 5955, 5956, 5977, 5976, 6396, 6397, 6418, 6417
5413, 5956, 5957, 5978, 5977, 6397, 6398, 6419, 6418
5414, 5957, 5958, 5979, 5978, 6398, 6399, 6420, 6419
5415, 5958, 5959, 5980, 5979, 6399, 6400, 6421, 6420
5416, 5959, 5960, 5981, 5980, 6400, 6401, 6422, 6421
5417, 5960, 5961, 5982, 5981, 6401, 6402, 6423, 6422
5418, 5961, 5962, 5983, 5982, 6402, 6403, 6424, 6423
5419, 5962, 5963, 5984, 5983, 6403, 6404, 6425, 6424
5420, 5963, 5964, 5985, 5984, 6404, 6405, 6426, 6425
5421, 5965, 5966, 5987, 5986, 6406, 6407, 6428, 6427
5422, 5966, 5967, 5988, 5987, 6407, 6408, 6429, 6428
5423, 5967, 5968, 5989, 5988, 6408, 6409, 6430, 6429
5424, 5968, 5969, 5990, 5989, 6409, 6410, 6431, 6430
5425, 5969, 5970, 5991, 5990, 6410, 6411, 6432, 6431
5426, 5970, 5971, 5992, 5991, 6411, 6412, 6433, 6432
5427, 5971, 5972, 5993, 5992, 6412, 6413, 6434, 6433
5428, 5972, 5973, 5994, 5993, 6413, 6414, 6435, 6434
5429, 5973, 5974, 5995, 5994, 6414, 6415, 6436, 6435
5430, 5974, 5975, 5996, 5995, 6415, 6416, 6437, 6436
5431, 5975, 5976, 5997, 5996, 6416, 6417, 6438, 6437
5432, 5976, 5977, 5998, 5997, 6417, 6418, 6439, 6438
5433, 5977, 5978, 5999, 5998, 6418, 6419, 6440, 6439
5434, 5978, 5979, 6000, 5999, 6419, 6420, 6441, 6440
5435, 5979, 5980, 6001, 6000, 6420, 6421, 6442, 6441
5436, 5980, 5981, 6002, 6001, 6421, 6422, 6443, 6442
5437, 5981, 5982, 6003, 6002, 6422, 6423, 6444, 6443
5438, 5982, 5983, 6004, 6003, 6423, 6424, 6445, 6444
5439, 5983, 5984, 6005, 6004, 6424, 6425, 6446, 6445
5440, 5984, 5985, 6006, 6005, 6425, 6426, 6447, 6446
5441, 5986, 5987, 6008, 6007, 6427, 6428, 6449, 6448
5442, 5987, 5988, 6009, 6008, 6428, 6429, 6450, 6449
5443, 5988, 5989, 6010, 6009, 6429, 6430, 6451, 6450
5444, 5989, 5990, 6011, 6010, 6430, 6431, 6452, 6451
5445, 5990, 5991, 6012, 6011, 6431, 6432, 6453, 6452
5446, 5991, 5992, 6013, 6012, 6432, 6433, 6454, 6453
5447, 5992, 5993, 6014, 6013, 6433, 6434, 6455, 6454
5448, 5993, 5994, 6015, 6014, 6434, 6435, 6456, 6455
5449, 5994, 5995, 6016, 6015, 6435, 6436, 6457, 6456
5450, 5995, 5996, 6017, 6016, 6436, 6437, 6458, 6457
5451, 5996, 5997, 6018, 6017, 6437, 6438, 6459, 6458
5452, 5997, 5998, 6019, 6018, 6438, 6439, 6460, 6459
5453, 5998, 5999, 6020, 6019, 6439, 6440, 6461, 6460
5454, 5999, 6000, 6021, 6020, 6440, 6441, 6462, 6461
5455, 6000, 6001, 6022, 6021, 6441, 6442, 6463, 6462
5456, 6001, 6002, 6023, 6022, 6442, 6443, 6464, 6463
5457, 6002, 6003, 6024, 6023, 6443, 6444, 6465, 6464
5458, 6003, 6004, 6025, 6024, 6444, 6445, 6466, 6465
5459, 6004, 6005, 6026, 6025, 6445, 6446, 6467, 6466
5460, 6005, 6006, 6027, 6026, 6446, 6447, 6468, 6467
5461, 6007, 6008, 6029, 6028, 6448, 6449, 6470, 6469
5462, 6008, 6009, 6030, 6029, 6449, 6450, 6471, 6470
5463, 6009, 6010, 6031, 6030, 6450, 6451, 6472, 6471
5464, 6010, 6011, 6032, 6031, 6451, 6452, 6473, 6472
5465, 6011, 6012, 6033, 6032, 6452, 6453, 6474, 6473
5466, 6012, 6013, 6034, 6033, 6453, 6454, 6475, 6474
5467, 6013, 6014, 6035, 6034, 6454, 6455, 6476, 6475
5468, 6014, 6015, 6036, 6035, 6455, 6456, 6477, 6476
5469, 6015, 6016, 6037, 6036, 6456, 6457, 6478, 6477
5470, 6016, 6017, 6038, 6037, 6457, 6458, 6479, 6478
5471, 6017, 6018, 6039, 6038, 6458, 6459, 6480, 6479
5472, 6018, 6019, 6040, 6039, 6459, 6460, 6481, 6480
5473, 6019, 6020, 6041, 6040, 6460, 6461, 6482, 6481
5474, 6020, 6021, 6042, 6041, 6461, 6462, 6483, 6482
5475, 6021, 6022, 6043, 6042, 6462, 6463, 6484, 6483
5476, 6022, 6023, 6044, 6043, 6463, 6464, 6485, 6484
5477, 6023, 6024, 6045, 6044, 6464, 6465, 6486, 6485
5478, 6024, 6025, 6046, 6045, 6465, 6466, 6487, 6486
5479, 6025, 6026, 6047, 6046, 6466, 6467, 6488, 6487
5480, 6026, 6027, 6048, 6047, 6467, 6468, 6489, 6488
5481, 6028, 6029, 6050, 6049, 6469, 6470, 6491, 6490
5482, 6029, 6030, 6051, 6050, 6470, 6471, 6492, 6491
5483, 6030, 6031, 6052, 6051, 6471, 6472, 6493, 6492
5484, 6031, 6032, 6053, 6052, 6472, 6473, 6494, 6493
5485, 6032, 6033, 6054, 6053, 6473, 6474, 6495, 6494
5486, 6033, 6034, 6055, 6054, 6474, 6475, 6496, 6495
5487, 6034, 6035, 6056, 6055, 6475, 6476, 6497, 6496
5488, 6035, 6036, 6057, 6056, 6476, 6477, 6498, 6497
5489, 6036, 6037, 6058, 6057, 6477, 6478, 6499, 6498
5490, 6037, 6038, 6059, 6058, 6478, 6479, 6500, 6499
5491, 6038, 6039, 6060, 6059, 6479, 6480, 6501, 6500
5492, 6039, 6040, 6061, 6060, 6480, 6481, 6502, 6501
5493, 6040, 6041, 6062, 6061, 6481, 6482, 6503, 6502
5494, 6041, 6042, 6063, 6062, 6482, 6483, 6504, 6503
5495, 6042, 6043, 6064, 6063, 6483, 6484, 6505, 6504
5496, 6043, 6044, 6065, 6064, 6484, 6485, 6506, 6505
5497, 6044, 6045, 6066, 6065, 6485, 6486, 6507, 6506
5498, 6045, 6046, 6067, 6066, 6486, 6487, 6508, 6507
5499, 6046, 6047, 6068, 6067, 6487, 6488, 6509, 6508
5500, 6047, 6048, 6069, 6068, 6488, 6489, 6510, 6509
5501, 6049, 6050, 6071, 6070, 6490, 6491, 6512, 6511
5502, 6050, 6051, 6072, 6071, 6491, 6492, 6513, 6512
5503, 6051, 6052, 6073, 6072, 6492, 6493, 6514, 6513
5504, 6052, 6053, 6074, 6073, 6493, 6494, 6515, 6514
5505, 6053, 6054, 6075, 6074, 6494, 6495, 6516, 6515
5506, 6054, 6055, 6076, 6075, 6495, 6496, 6517, 6516
5507, 6055, 6056, 6077, 6076, 6496, 6497, 6518, 6517
5508, 6056, 6057, 6078, 6077, 6497, 6498, 6519, 6518
5509, 6057, 6058, 6079, 6078, 6498, 6499, 6520, 6519
5510, 6058, 6059, 6080, 6079, 6499, 6500, 6521, 6520
5511, 6059, 6060, 6081, 6080, 6500, 6501, 6522, 6521
5512, 6060, 6061, 6082, 6081, 6501, 6502, 6523, 6522
5513, 6061, 6062, 6083, 6082, 6502, 6503, 6524, 6523
5514, 6062, 6063, 6084, 6083, 6503, 6504, 6525, 6524
5515, 6063, 6064, 6085, 6084, 6504, 6505, 6526, 6525
5516, 6064, 6065, 6086, 6085, 6505, 6506, 6527, 6526
5517, 6065, 6066, 6087, 6086, 6506, 6507, 6528, 6527
5518, 6066, 6067, 6088, 6087, 6507, 6508, 6529, 6528
5519, 6067, 6068, 6089, 6088, 6508, 6509, 6530, 6529
5520, 6068, 6069, 6090, 6089, 6509, 6510, 6531, 6530
5521, 6070, 6071, 6092, 6091, 6511, 6512, 6533, 6532
5522, 6071, 6072, 6093, 6092, 6512, 6513, 6534, 6533
5523, 6072, 6073, 6094, 6093, 6513, 6514, 6535, 6534
5524, 6073, 6074, 6095, 6094, 6514, 6515, 6536, 6535
5525, 6074, 6075, 6096, 6095, 6515, 6516, 6537, 6536
5526, 6075, 6076, 6097, 6096, 6516, 6517, 6538, 6537
5527, 6076, 6077, 6098, 6097, 6517, 6518, 6539, 6538
5528, 6077, 6078, 6099, 6098, 6518, 6519, 6540, 6539
5529, 6078, 6079, 6100, 6099, 6519, 6520, 6541, 6540
5530, 6079, 6080, 6101, 6100, 6520, 6521, 6542, 6541
5531, 6080, 6081, 6102, 6101, 6521, 6522, 6543, 6542
5532, 6081, 6082, 6103, 6102, 6522, 6523, 6544, 6543
5533, 6082, 6083, 6104, 6103, 6523, 6524, 6545, 6544
5534, 6083, 6084, 6105, 6104, 6524, 6525, 6546, 6545
5535, 6084, 6085, 6106, 6105, 6525, 6526, 6547, 6546
5536, 6085, 6086, 6107, 6106, 6526, 6527, 6548, 6547
5537, 6086, 6087, 6108, 6107, 6527, 6528, 6549, 6548
5538, 6087, 6088, 6109, 6108, 6528, 6529, 6550, 6549
5539, 6088, 6089, 6110, 6109, 6529, 6530, 6551, 6550
5540, 6089, 6090, 6111, 6110, 6530, 6531, 6552, 6551
5541, 6091, 6092, 6113, 6112, 6532, 6533, 6554, 6553
5542, 6092, 6093, 6114, 6113, 6533, 6534, 6555, 6554
5543, 6093, 6094, 6115, 6114, 6534, 6535, 6556, 6555
5544, 6094, 6095, 6116, 6115, 6535, 6536, 6557, 6556
5545, 6095, 6096, 6117, 6116, 6536, 6537, 6558, 6557
5546, 6096, 6097, 6118, 6117, 6537, 6538, 6559, 6558
5547, 6097, 6098, 6119, 6118, 6538, 6539, 6560, 6559
5548, 6098, 6099, 6120, 6119, 6539, 6540, 6561, 6560
5549, 6099, 6100, 6121, 6120, 6540, 6541, 6562, 6561
5550, 6100, 6101, 6122, 6121, 6541, 6542, 6563, 6562
5551, 6101, 6102, 6123, 6122, 6542, 6543, 6564, 6563
5552, 6102, 6103, 6124, 6123, 6543, 6544, 6565, 6564
5553, 6103, 6104, 6125, 6124, 6544, 6545, 6566, 6565
5554, 6104, 6105, 6126, 6125, 6545, 6546, 6567, 6566
5555, 6105, 6106, 6127, 6126, 6546, 6547, 6568, 6567
5556, 6106, 6107, 6128, 6127, 6547, 6548, 6569, 6568
5557, 6107, 6108, 6129, 6128, 6548, 6549, 6570, 6569
5558, 6108, 6109, 6130, 6129, 6549, 6550, 6571, 6570
5559, 6109, 6110, 6131, 6130, 6550, 6551, 6572, 6571
5560, 6110, 6111, 6132, 6131, 6551, 6552, 6573, 6572
5561, 6112, 6113, 6134, 6133, 6553, 6554, 6575, 6574
5562, 6113, 6114, 6135, 6134, 6554, 6555, 6576, 6575
5563, 6114, 6115, 6136, 6135, 6555, 6556, 6577, 6576
5564, 6115, 6116, 6137, 6136, 6556, 6557, 6578, 6577
5565, 6116, 6117, 6138, 6137, 6557, 6558, 6579, 6578
5566, 6117, 6118, 6139, 6138, 6558, 6559, 6580, 6579
5567, 6118, 6119, 6140, 6139, 6559, 6560, 6581, 6580
5568, 6119, 6120, 6141, 6140, 6560, 6561, 6582, 6581
5569, 6120, 6121, 6142, 6141, 6561, 6562, 6583, 6582
5570, 6121, 6122, 6143, 6142, 6562, 6563, 6584, 6583
5571, 6122, 6123, 6144, 6143, 6563, 6564, 6585, 6584
5572, 6123, 6124, 6145, 6144, 6564, 6565, 6586, 6585
5573, 6124, 6125, 6146, 6145, 6565, 6566, 6587, 6586
5574, 6125, 6126, 6147, 6146, 6566, 6567, 6588, 6587
5575, 6126, 6127, 6148, 6147, 6567, 6568, 6589, 6588
5576, 6127, 6128, 6149, 6148, 6568, 6569, 6590, 6589
5577, 6128, 6129, 6150, 6149, 6569, 6570, 6591, 6590
5578, 6129, 6130, 6151, 6150, 6570, 6571, 6592, 6591
5579, 6130, 6131, 6152, 6151, 6571, 6572, 6593, 6592
5580, 6131, 6132, 6153, 6152, 6572, 6573, 6594, 6593
5581, 6133, 6134, 6155, 6154, 6574, 6575, 6596, 6595
5582, 6134, 6135, 6156, 6155, 6575, 6576, 6597, 6596
5583, 6135, 6136, 6157, 6156, 6576, 6577, 6598, 6597
5584, 6136, 6137, 6158, 6157, 6577, 6578, 6599, 6598
5585, 6137, 6138, 6159, 6158, 6578, 6579, 6600, 6599
5586, 6138, 6139, 6160, 6159, 6579, 6580, 6601, 6600
5587, 6139, 6140, 6161, 6160, 6580, 6581, 6602, 6601
5588, 6140, 6141, 6162, 6161, 6581, 6582, 6603, 6602
5589, 6141, 6142, 6163, 6162, 6582, 6583, 6604, 6603
5590, 6142, 6143, 6164, 6163, 6583, 6584, 6605, 6604
5591, 6143, 6144, 6165, 6164, 6584, 6585, 6606, 6605
5592, 6144, 6145, 6166, 6165, 6585, 6586, 6607, 6606
5593, 6145, 6146, 6167, 6166, 6586, 6587, 6608, 6607
5594, 6146, 6147, 6168, 6167, 6587, 6588, 6609, 6608
5595, 6147, 6148, 6169, 6168, 6588, 6589, 6610, 6609
5596, 6148, 6149, 6170, 6169, 6589, 6590, 6611, 6610
5597, 6149, 6150, 6171, 6170, 6590, 6591, 6612, 6611
5598, 6150, 6151, 6172, 6171, 6591, 6592, 6613, 6612
5599, 6151, 6152, 6173, 6172, 6592, 6593, 6614, 6613
5600, 6152, 6153, 6174, 6173, 6593, 6594, 6615, 6614
5601, 6175, 6176, 6197, 6196, 6616, 6617, 6638, 6637
5602, 6176, 6177, 6198, 6197, 6617, 6618, 6639, 6638
5603, 6177, 6178, 6199, 6198, 6618, 6619, 6640, 6639
5604, 6178, 6179, 6200, 6199, 6619, 6620, 6641, 6640
5605, 6179, 6180, 6201, 6200, 6620, 6621, 6642, 6641
5606, 6180, 6181, 6202, 6201, 6621, 6622, 6643, 6642
5607, 6181, 6182, 6203, 6202, 6622, 6623, 6644, 6643
5608, 6182, 6183, 6204, 6203, 6623, 6624, 6645, 6644
5609, 6183, 6184, 6205, 6204, 6624, 6625, 6646, 6645
5610, 6184, 6185, 6206, 6205, 6625, 6626, 6647, 6646
5611, 6185, 6186, 6207, 6206, 6626, 6627, 6648, 6647
5612, 6186, 6187, 6208, 6207, 6627, 6628, 6649, 6648
5613, 6187, 6188, 6209, 6208, 6628, 6629, 6650, 6649
5614, 6188, 6189, 6210, 6209, 6629, 6630, 6651, 6650
5615, 6189, 6190, 6211, 6210, 6630, 6631, 6652, 6651
5616, 6190, 6191, 6212, 6211, 6631, 6632, 6653, 6652
5617, 6191, 6192, 6213, 6212, 6632, 6633, 6654, 6653
5618, 6192, 6193, 6214, 6213, 6633, 6634, 6655, 6654
5619, 6193, 6194, 6215, 6214, 6634, 6635, 6656, 6655
5620, 6194, 6195, 6216, 6215, 6635, 6636, 6657, 6656
5621, 6196, 6197, 6218, 6217, 6637, 6638, 6659, 6658
5622, 6197, 6198, 6219, 6218, 6638, 6639, 6660, 6659
5623, 6198, 6199, 6220, 6219, 6639, 6640, 6661, 6660
5624, 6199, 6200, 6221, 6220, 6640, 6641, 6662, 6661
5625, 6200, 6201, 6222, 6221, 6641, 6642, 6663, 6662
5626, 6201, 6202, 6223, 6222, 6642, 6643, 6664, 6663
5627, 6202, 6203, 6224, 6223, 6643, 6644, 6665, 6664
5628, 6203, 6204, 6225, 6224, 6644, 6645, 6666, 6665
5629, 6204, 6205, 6226, 6225, 6645, 6646, 6667, 6666
5630, 6205, 6206, 6227, 6226, 6646, 6647, 6668, 6667
5631, 6206, 6207, 6228, 6227, 6647, 6648, 6669, 6668
5632, 6207, 6208, 6229, 6228, 6648, 6649, 6670, 6669
5633, 6208, 6209, 6230, 6229, 6649, 6650, 6671, 6670
5634, 6209, 6210, 6231, 6230, 6650, 6651, 6672, 6671
5635, 6210, 6211, 6232, 6231, 6651, 6652, 6673, 6672
5636, 6211, 6212, 6233, 6232, 6652, 6653, 6674, 6673
5637, 6212, 6213, 6234, 6233, 6653, 6654, 6675, 6674
5638, 6213, 6214, 6235, 6234, 6654, 6655, 6676, 6675
5639, 6214, 6215, 6236, 6235, 6655, 6656, 6677, 6676
5640, 6215, 6216, 6237, 6236, 6656, 6657, 6678, 6677
5641, 6217, 6218, 6239, 6238, 6658, 6659, 6680, 6679
5642, 6218, 6219, 6240, 6239, 6659, 6660, 6681, 6680
5643, 6219, 6220, 6241, 6240, 6660, 6661, 6682, 6681
5644, 6220, 6221, 6242, 6241, 6661, 6662, 6683, 6682
5645, 6221, 6222, 6243, 6242, 6662, 6663, 6684, 6683
5646, 6222, 6223, 6244, 6243, 6663, 6664, 6685, 6684
5647, 6223, 6224, 6245, 6244, 6664, 6665, 6686, 6685
5648, 6224, 6225, 6246, 6245, 6665, 6666, 6687, 6686
5649, 6225, 6226, 6247, 6246, 6666, 6667, 6688, 6687
5650, 6226, 6227, 6248, 6247, 6667, 6668, 6689, 6688
5651, 6227, 6228, 6249, 6248, 6668, 6669, 6690, 6689
5652, 6228, 6229, 6250, 6249, 6669, 6670, 6691, 6690
5653, 6229, 6230, 6251, 6250, 6670, 6671, 6692, 6691
5654, 6230, 6231, 6252, 6251, 6671, 6672, 6693, 6692
5655, 6231, 6232, 6253, 6252, 6672, 6673, 6694, 6693
5656, 6232, 6233, 6254, 6253, 6673, 6674, 6695, 6694
5657, 6233, 6234, 6255, 6254, 6674, 6675, 6696, 6695
5658, 6234, 6235, 6256, 6255, 6675, 6676, 6697, 6696
5659, 6235, 6236, 6257, 6256, 6676, 6677, 6698, 6697
5660, 6236, 6237, 6258, 6257, 6677, 6678, 6699, 6698
5661, 6238, 6239, 6260, 6259, 6679, 6680, 6701, 6700
5662, 6239, 6240, 6261, 6260, 6680, 6681, 6702, 6701
5663, 6240, 6241, 6262, 6261, 6681, 6682, 6703, 6702
5664, 6241, 6242, 6263, 6262, 6682, 6683, 6704, 6703
5665, 6242, 6243, 6264, 6263, 6683, 6684, 6705, 6704
5666, 6243, 6244, 6265, 6264, 6684, 6685, 6706, 6705
5667, 6244, 6245, 6266, 6265, 6685, 6686, 6707, 6706
5668, 6245, 6246, 6267, 6266, 6686, 6687, 6708, 6707
5669, 6246, 6247, 6268, 6267, 6687, 6688, 6709, 6708
5670, 6247, 6248, 6269, 6268, 6688, 6689, 6710, 6709
5671, 6248, 6249, 6270, 6269, 6689, 6690, 6711, 6710
5672, 6249, 6250, 6271, 6270, 6690, 6691, 6712, 6711
5673, 6250, 6251, 6272, 6271, 6691, 6692, 6713, 6712
5674, 6251, 6252, 6273, 6272, 6692, 6693, 6714, 6713
5675, 6252, 6253, 6274, 6273, 6693, 6694, 6715, 6714
5676, 6253, 6254, 6275, 6274, 6694, 6695, 6716, 6715
5677, 6254, 6255, 6276, 6275, 6695, 6696, 6717, 6716
5678, 6255, 6256, 6277, 6276, 6696, 6697, 6718, 6717
5679, 6256, 6257, 6278, 6277, 6697, 6698, 6719, 6718
5680, 6257, 6258, 6279, 6278, 6698, 6699, 6720, 6719
5681, 6259, 6260, 6281, 6280, 6700, 6701, 6722, 6721
5682, 6260, 6261, 6282, 6281, 6701, 6702, 6723, 6722
5683, 6261, 6262, 6283, 6282, 6702, 6703, 6724, 6723
5684, 6262, 6263, 6284, 6283, 6703, 6704, 6725, 6724
5685, 6263, 6264, 6285, 6284, 6704, 6705, 6726, 6725
5686, 6264, 6265, 6286, 6285, 6705, 6706, 6727, 6726
5687, 6265, 6266, 6287, 6286, 6706, 6707, 6728, 6727
5688, 6266, 6267, 6288, 6287, 6707, 6708, 6729, 6728
5689, 6267, 6268, 6289, 6288, 6708, 6709, 6730, 6729
5690, 6268, 6269, 6290, 6289, 6709, 6710, 6731, 6730
5691, 6269, 6270, 6291, 6290, 6710, 6711, 6732, 6731
5692, 6270, 6271, 6292, 6291, 6711, 6712, 6733, 6732
5693, 6271, 6272, 6293, 6292, 6712, 6713, 6734, 6733
5694, 6272, 6273, 6294, 6293, 6713, 6714, 6735, 6734
5695, 6273, 6274, 6295, 6294, 6714, 6715, 6736, 6735
5696, 6274, 6275, 6296, 6295, 6715, 6716, 6737, 6736
5697, 6275, 6276, 6297, 6296, 6716, 6717, 6738, 6737
5698, 6276, 6277, 6298, 6297, 6717, 6718, 6739, 6738
5699, 6277, 6278, 6299, 6298, 6718, 6719, 6740, 6739
5700, 6278, 6279, 6300, 6299, 6719, 6720, 6741, 6740
5701, 6280, 6281, 6302, 6301, 6721, 6722, 6743, 6742
5702, 6281, 6282, 6303, 6302, 6722, 6723, 6744, 6743
5703, 6282, 6283, 6304, 6303, 6723, 6724, 6745, 6744
5704, 6283, 6284, 6305, 6304, 6724, 6725, 6746, 6745
5705, 6284, 6285, 6306, 6305, 6725, 6726, 6747, 6746
5706, 6285, 6286, 6307, 6306, 6726, 6727, 6748, 6747
5707, 6286, 6287, 6308, 6307, 6727, 6728, 6749, 6748
5708, 6287, 6288, 6309, 6308, 6728, 6729, 6750, 6749
5709, 6288, 6289, 6310, 6309, 6729, 6730, 6751, 6750
5710, 6289, 6290, 6311, 6310, 6730, 6731, 6752, 6751
5711, 6290, 6291, 6312, 6311, 6731, 6732, 6753, 6752
5712, 6291, 6292, 6313, 6312, 6732, 6733, 6754, 6753
5713, 6292, 6293, 6314, 6313, 6733, 6734, 6755, 6754
5714, 6293, 6294, 6315, 6314, 6734, 6735, 6756, 6755
5715, 6294, 6295, 6316, 6315, 6735, 6736, 6757, 6756
5716, 6295, 6296, 6317, 6316, 6736, 6737, 6758, 6757
5717, 6296, 6297, 6318, 6317, 6737, 6738, 6759, 6758
5718, 6297, 6298, 6319, 6318, 6738, 6739, 6760, 6759
5719, 6298, 6299, 6320, 6319, 6739, 6740, 6761, 6760
5720, 6299, 6300, 6321, 6320, 6740, 6741, 6762, 6761
5721, 6301, 6302, 6323, 6322, 6742, 6743, 6764, 6763
5722, 6302, 6303, 6324, 6323, 6743, 6744, 6765, 6764
5723, 6303, 6304, 6325, 6324, 6744, 6745, 6766, 6765
5724, 6304, 6305, 6326, 6325, 6745, 6746, 6767, 6766
5725, 6305, 6306, 6327, 6326, 6746, 6747, 6768, 6767
5726, 6306, 6307, 6328, 6327, 6747, 6748, 6769, 6768
5727, 6307, 6308, 6329, 6328, 6748, 6749, 6770, 6769
5728, 6308, 6309, 6330, 6329, 6749, 6750, 6771, 6770
5729, 6309, 6310, 6331, 6330, 6750, 6751, 6772, 6771
5730, 6310, 6311, 6332, 6331, 6751, 6752, 6773, 6772
5731, 6311, 6312, 6333, 6332, 6752, 6753, 6774, 6773
5732, 6312, 6313, 6334, 6333, 6753, 6754, 6775, 6774
5733, 6313, 6314, 6335, 6334, 6754, 6755, 6776, 6775
5734, 6314, 6315, 6336, 6335, 6755, 6756, 6777, 6776
5735, 6315, 6316, 6337, 6336, 6756, 6757, 6778, 6777
5736, 6316, 6317, 6338, 6337, 6757, 6758, 6779, 6778
5737, 6317, 6318, 6339, 6338, 6758, 6759, 6780, 6779
5738, 6318, 6319, 6340, 6339, 6759, 6760, 6781, 6780
5739, 6319, 6320, 6341, 6340, 6760, 6761, 6782, 6781
5740, 6320, 6321, 6342, 6341, 6761, 6762, 6783, 6782
5741, 6322, 6323, 6344, 6343, 6763, 6764, 6785, 6784
5742, 6323, 6324, 6345, 6344, 6764, 6765, 6786, 6785
5743, 6324, 6325, 6346, 6345, 6765, 6766, 6787, 6786
5744, 6325, 6326, 6347, 6346, 6766, 6767, 6788, 6787
5745, 6326, 6327, 6348, 6347, 6767, 6768, 6789, 6788
5746, 6327, 6328, 6349, 6348, 6768, 6769, 6790, 6789
5747, 6328, 6329, 6350, 6349, 6769, 6770, 6791, 6790
5748, 6329, 6330, 6351, 6350, 6770, 6771, 6792, 6791
5749, 6330, 6331, 6352, 6351, 6771, 6772, 6793, 6792
5750, 6331, 6332, 6353, 6352, 6772, 6773, 6794, 6793
5751, 6332, 6333, 6354, 6353, 6773, 6774, 6795, 6794
5752, 6333, 6334, 6355, 6354, 6774, 6775, 6796, 6795
5753, 6334, 6335, 6356, 6355, 6775, 6776, 6797, 6796
5754, 6335, 6336, 6357, 6356, 6776, 6777, 6798, 6797
5755, 6336, 6337, 6358, 6357, 6777, 6778, 6799, 6798
5756, 6337, 6338, 6359, 6358, 6778, 6779, 6800, 6799
5757, 6338, 6339, 6360, 6359, 6779, 6780, 6801, 6800
5758, 6339, 6340, 6361, 6360, 6780, 6781, 6802, 6801
5759, 6340, 6341, 6362, 6361, 6781, 6782, 6803, 6802
5760, 6341, 6342, 6363, 6362, 6782, 6783, 6804, 6803
5761, 6343, 6344, 6365, 6364, 6784, 6785, 6806, 6805
5762, 6344, 6345, 6366, 6365, 6785, 6786, 6807, 6806
5763, 6345, 6346, 6367, 6366, 6786, 6787, 6808, 6807
5764, 6346, 6347, 6368, 6367, 6787, 6788, 6809, 6808
5765, 6347, 6348, 6369, 6368, 6788, 6789, 6810, 6809
5766, 6348, 6349, 6370, 6369, 6789, 6790, 6811, 6810
5767, 6349, 6350, 6371, 6370, 6790, 6791, 6812, 6811
5768, 6350, 6351, 6372, 6371, 6791, 6792, 6813, 6812
5769, 6351, 6352, 6373, 6372, 6792, 6793, 6814, 6813
5770, 6352, 6353, 6374, 6373, 6793, 6794, 6815, 6814
5771, 6353, 6354, 6375, 6374, 6794, 6795, 6816, 6815
5772, 6354, 6355, 6376, 6375, 6795, 6796, 6817, 6816
5773, 6355, 6356, 6377, 6376, 6796, 6797, 6818, 6817
5774, 6356, 6357, 6378, 6377, 6797, 6798, 6819, 6818
5775, 6357, 6358, 6379, 6378, 6798, 6799, 6820, 6819
5776, 6358, 6359, 6380, 6379, 6799, 6800, 6821, 6820
5777, 6359, 6360, 6381, 6380, 6800, 6801, 6822, 6821
5778, 6360, 6361, 6382, 6381, 6801, 6802, 6823, 6822
5779, 6361, 6362, 6383, 6382, 6802, 6803, 6824, 6823
5780, 6362, 6363, 6384, 6383, 6803, 6804, 6825, 6824
5781, 6364, 6365, 6386, 6385, 6805, 6806, 6827, 6826
5782, 6365, 6366, 6387, 6386, 6806, 6807, 6828, 6827
5783, 6366, 6367, 6388, 6387, 6807, 6808, 6829, 6828
5784, 6367, 6368, 6389, 6388, 6808, 6809, 6830, 6829
5785, 6368, 6369, 6390, 6389, 6809, 6810, 6831, 6830
5786, 6369, 6370, 6391, 6390, 6810, 6811, 6832, 6831
5787, 6370, 6371, 6392, 6391, 6811, 6812, 6833, 6832
5788, 6371, 6372, 6393, 6392, 6812, 6813, 6834, 6833
5789, 6372, 6373, 6394, 6393, 6813, 6814, 6835, 6834
5790, 6373, 6374, 6395, 6394, 6814, 6815, 6836, 6835
5791, 6374, 6375, 6396, 6395, 6815, 6816, 6837, 6836
5792, 6375, 6376, 6397, 6396, 6816, 6817, 6838, 6837
5793, 6376, 6377, 6398, 6397, 6817, 6818, 6839, 6838
5794, 6377, 6378, 6399, 6398, 6818, 6819, 6840, 6839
5795, 6378, 6379, 6400, 6399, 6819, 6820, 6841, 6840
5796, 6379, 6380, 6401, 6400, 6820, 6821, 6842, 6841
5797, 6380, 6381, 6402, 6401, 6821, 6822, 6843, 6842
5798, 6381, 6382, 6403, 6402, 6822, 6823, 6844, 6843
5799, 6382, 6383, 6404, 6403, 6823, 6824, 6845, 6844
5800, 6383, 6384, 6405, 6404, 6824, 6825, 6846, 6845
5801, 6385, 6386, 6407, 6406, 6826, 6827, 6848, 6847
5802, 6386, 6387, 6408, 6407, 6827, 6828, 6849, 6848
5803, 6387, 6388, 6409, 6408, 6828, 6829, 6850, 6849
5804, 6388, 6389, 6410, 6409, 6829, 6830, 6851, 6850
5805, 6389, 6390, 6411, 6410, 6830, 6831, 6852, 6851
5806, 6390, 6391, 6412, 6411, 6831, 6832, 6853, 6852
5807, 6391, 6392, 6413, 6412, 6832, 6833, 6854, 6853
5808, 6392, 6393, 6414, 6413, 6833, 6834, 6855, 6854
5809, 6393, 6394, 6415, 6414, 6834, 6835, 6856, 6855
5810, 6394, 6395, 6416, 6415, 6835, 6836, 6857, 6856
5811, 6395, 6396, 6417, 6416, 6836, 6837, 6858, 6857
5812, 6396, 6397, 6418, 6417, 6837, 6838, 6859, 6858
5813, 6397, 6398, 6419, 6418, 6838, 6839, 6860, 6859
5814, 6398, 6399, 6420, 6419, 6839, 6840, 6861, 6860
5815, 6399, 6400, 6421, 6420, 6840, 6841, 6862, 6861
5816, 6400, 6401, 6422, 6421, 6841, 6842, 6863, 6862
5817, 6401, 6402, 6423, 6422, 6842, 6843, 6864, 6863
5818, 6402, 6403, 6424, 6423, 6843, 6844, 6865, 6864
5819, 6403, 6404, 6425, 6424, 6844, 6845, 6866, 6865
5820, 6404, 6405, 6426, 6425, 6845, 6846, 6867, 6866
5821, 6406, 6407, 6428, 6427, 6847, 6848, 6869, 6868
5822, 6407, 6408, 6429, 6428, 6848, 6849, 6870, 6869
5823, 6408, 6409, 6430, 6429, 6849, 6850, 6871, 6870
5824, 6409, 6410, 6431, 6430, 6850, 6851, 6872, 6871
5825, 6410, 6411, 6432, 6431, 6851, 6852, 6873, 6872
5826, 6411, 6412, 6433, 6432, 6852, 6853, 6874, 6873
5827, 6412, 6413, 6434, 6433, 6853, 6854, 6875, 6874
5828, 6413, 6414, 6435, 6434, 6854, 6855, 6876, 6875
5829, 6414, 6415, 6436, 6435, 6855, 6856, 6877, 6876
5830, 6415, 6416, 6437, 6436, 6856, 6857, 6878, 6877
5831, 6416, 6417, 6438, 6437, 6857, 6858, 6879, 6878
5832, 6417, 6418, 6439, 6438, 6858, 6859, 6880, 6879
5833, 6418, 6419, 6440, 6439, 6859, 6860, 6881, 6880
5834, 6419, 6420, 6441, 6440, 6860, 6861, 6882, 6881
5835, 6420, 6421, 6442, 6441, 6861, 6862, 6883, 6882
5836, 6421, 6422, 6443, 6442, 6862, 6863, 6884, 6883
5837, 6422, 6423, 6444, 6443, 6863, 6864, 6885, 6884
5838, 6423, 6424, 6445, 6444, 6864, 6865, 6886, 6885
5839, 6424, 6425, 6446, 6445, 6865, 6866, 6887, 6886
5840, 6425, 6426, 6447, 6446, 6866, 6867, 6888, 6887
5841, 6427, 6428, 6449, 6448, 6868, 6869, 6890, 6889
5842, 6428, 6429, 6450, 6449, 6869, 6870, 6891, 6890
5843, 6429, 6430, 6451, 6450, 6870, 6871, 6892, 6891
5844, 6430, 6431, 6452, 6451, 6871, 6872, 6893, 6892
5845, 6431, 6432, 6453, 6452, 6872, 6873, 6894, 6893
5846, 6432, 6433, 6454, 6453, 6873, 6874, 6895, 6894
5847, 6433, 6434, 6455, 6454, 6874, 6875, 6896, 6895
5848, 6434, 6435, 6456, 6455, 6875, 6876, 6897, 6896
5849, 6435, 6436, 6457, 6456, 6876, 6877, 6898, 6897
5850, 6436, 6437, 6458, 6457, 6877, 6878, 6899, 6898
5851, 6437, 6438, 6459, 6458, 6878, 6879, 6900, 6899
5852, 6438, 6439, 6460, 6459, 6879, 6880, 6901, 6900
5853, 6439, 6440, 6461, 6460, 6880, 6881, 6902, 6901
5854, 6440, 6441, 6462, 6461, 6881, 6882, 6903, 6902
5855, 6441, 6442, 6463, 6462, 6882, 6883, 6904, 6903
5856, 6442, 6443, 6464, 6463, 6883, 6884, 6905, 6904
5857, 6443, 6444, 6465, 6464, 6884, 6885, 6906, 6905
5858, 6444, 6445, 6466, 6465, 6885, 6886, 6907, 6906
5859, 6445, 6446, 6467, 6466, 6886, 6887, 6908, 6907
5860, 6446, 6447, 6468, 6467, 6887, 6888, 6909, 6908
5861, 6448, 6449, 6470, 6469, 6889, 6890, 6911, 6910
5862, 6449, 6450, 6471, 6470, 6890, 6891, 6912, 6911
5863, 6450, 6451, 6472, 6471, 6891, 6892, 6913, 6912
5864, 6451, 6452, 6473, 6472, 6892, 6893, 6914, 6913
5865, 6452, 6453, 6474, 6473, 6893, 6894, 6915, 6914
5866, 6453, 6454, 6475, 6474, 6894, 6895, 6916, 6915
5867, 6454, 6455, 6476, 6475, 6895, 6896, 6917, 6916
5868, 6455, 6456, 6477, 6476, 6896, 6897, 6918, 6917
5869, 6456, 6457, 6478, 6477, 6897, 6898, 6919, 6918
5870, 6457, 6458, 6479, 6478, 6898, 6899, 6920, 6919
5871, 6458, 6459, 6480, 6479, 6899, 6900, 6921, 6920
5872, 6459, 6460, 6481, 6480, 6900, 6901, 6922, 6921
5873, 6460, 6461, 6482, 6481, 6901, 6902, 6923, 6922
5874, 6461, 6462, 6483, 6482, 6902, 6903, 6924, 6923
5875, 6462, 6463, 6484, 6483, 6903, 6904, 6925, 6924
5876, 6463, 6464, 6485, 6484, 6904, 6905, 6926, 6925
5877, 6464, 6465, 6486, 6485, 6905, 6906, 6927, 6926
5878, 6465, 6466, 6487, 6486, 6906, 6907, 6928, 6927
5879, 6466, 6467, 6488, 6487, 6907, 6908, 6929, 6928
5880, 6467, 6468, 6489, 6488, 6908, 6909, 6930, 6929
5881, 6469, 6470, 6491, 6490, 6910, 6911, 6932, 6931
5882, 6470, 6471, 6492, 6491, 6911, 6912, 6933, 6932
5883, 6471, 6472, 6493, 6492, 6912, 6913, 6934, 6933
5884, 6472, 6473, 6494, 6493, 6913, 6914, 6935, 6934
5885, 6473, 6474, 6495, 6494, 6914, 6915, 6936, 6935
5886, 6474, 6475, 6496, 6495, 6915, 6916, 6937, 6936
5887, 6475, 6476, 6497, 6496, 6916, 6917, 6938, 6937
5888, 6476, 6477, 6498, 6497, 6917, 6918, 6939, 6938
5889, 6477, 6478, 6499, 6498, 6918, 6919, 6940, 6939
5890, 6478, 6479, 6500, 6499, 6919, 6920, 6941, 6940
5891, 6479, 6480, 6501, 6500, 6920, 6921, 6942, 6941
5892, 6480, 6481, 6502, 6501, 6921, 6922, 6943, 6942
5893, 6481, 6482, 6503, 6502, 6922, 6923, 6944, 6943
5894, 6482, 6483, 6504, 6503, 6923, 6924, 6945, 6944
5895, 6483, 6484, 6505, 6504, 6924, 6925, 6946, 6945
5896, 6484, 6485, 6506, 6505, 6925, 6926, 6947, 6946
5897, 6485, 6486, 6507, 6506, 6926, 6927, 6948, 6947
5898, 6486, 6487, 6508, 6507, 6927, 6928, 6949, 6948
5899, 6487, 6488, 6509, 6508, 6928, 6929, 6950, 6949
5900, 6488, 6489, 6510, 6509, 6929, 6930, 6951, 6950
5901, 6490, 6491, 6512, 6511, 6931, 6932, 6953, 6952
5902, 6491, 6492, 6513, 6512, 6932, 6933, 6954, 6953
5903, 6492, 6493, 6514, 6513, 6933, 6934, 6955, 6954
5904, 6493, 6494, 6515, 6514, 6934, 6935, 6956, 6955
5905, 6494, 6495, 6516, 6515, 6935, 6936, 6957, 6956
5906, 6495, 6496, 6517, 6516, 6936, 6937, 6958, 6957
5907, 6496, 6497, 6518, 6517, 6937, 6938, 6959, 6958
5908, 6497, 6498, 6519, 6518, 6938, 6939, 6960, 6959
5909, 6498, 6499, 6520, 6519, 6939, 6940, 6961, 6960
5910, 6499, 6500, 6521, 6520, 6940, 6941, 6962, 6961
5911, 6500, 6501, 6522, 6521, 6941, 6942, 6963, 6962
5912, 6501, 6502, 6523, 6522, 6942, 6943, 6964, 6963
5913, 6502, 6503, 6524, 6523, 6943, 6944, 6965, 6964
5914, 6503, 6504, 6525, 6524, 6944, 6945, 6966, 6965
5915, 6504, 6505, 6526, 6525, 6945, 6946, 6967, 6966
5916, 6505, 6506, 6527, 6526, 6946, 6947, 6968, 6967
5917, 6506, 6507, 6528, 6527, 6947, 6948, 6969, 6968
5918, 6507, 6508, 6529, 6528, 6948, 6949, 6970, 6969
5919, 6508, 6509, 6530, 6529, 6949, 6950, 6971, 6970
5920, 6509, 6510, 6531, 6530, 6950, 6951, 6972, 6971
5921, 6511, 6512, 6533, 6532, 6952, 6953, 6974, 6973
5922, 6512, 6513, 6534, 6533, 6953, 6954, 6975, 6974
5923, 6513, 6514, 6535, 6534, 6954, 6955, 6976, 6975
5924, 6514, 6515, 6536, 6535, 6955, 6956, 6977, 6976
5925, 6515, 6516, 6537, 6536, 6956, 6957, 6978, 6977
5926, 6516, 6517, 6538, 6537, 6957, 6958, 6979, 6978
5927, 6517, 6518, 6539, 6538, 6958, 6959, 6980, 6979
5928, 6518, 6519, 6540, 6539, 6959, 6960, 6981, 6980
5929, 6519, 6520, 6541, 6540, 6960, 6961, 6982, 6981
5930, 6520, 6521, 6542, 6541, 6961, 6962, 6983, 6982
5931, 6521, 6522, 6543, 6542, 6962, 6963, 6984, 6983
5932, 6522, 6523, 6544, 6543, 6963, 6964, 6985, 6984
5933, 6523, 6524, 6545, 6544, 6964, 6965, 6986, 6985
5934, 6524, 6525, 6546, 6545, 6965, 6966, 6987, 6986
5935, 6525, 6526, 6547, 6546, 6966, 6967, 6988, 6987
5936, 6526, 6527, 6548, 6547, 6967, 6968, 6989, 6988
5937, 6527, 6528, 6549, 6548, 6968, 6969, 6990, 6989
5938, 6528, 6529, 6550, 6549, 6969, 6970, 6991, 6990
5939, 6529, 6530, 6551, 6550, 6970, 6971, 6992, 6991
5940, 6530, 6531, 6552, 6551, 6971, 6972, 6993, 6992
5941, 6532, 6533, 6554, 6553, 6973, 6974, 6995, 6994
5942, 6533, 6534, 6555, 6554, 6974, 6975, 6996, 6995
5943, 6534, 6535, 6556, 6555, 6975, 6976, 6997, 6996
5944, 6535, 6536, 6557, 6556, 6976, 6977, 6998, 6997
5945, 6536, 6537, 6558, 6557, 6977, 6978, 6999, 6998
5946, 6537, 6538, 6559, 6558, 6978, 6979, 7000, 6999
5947, 6538, 6539, 6560, 6559, 6979, 6980, 7001, 7000
5948, 6539, 6540, 6561, 6560, 6980, 6981, 7002, 7001
5949, 6540, 6541, 6562, 6561, 6981, 6982, 7003, 7002
5950, 6541, 6542, 6563, 6562, 6982, 6983, 7004, 7003
5951, 6542, 6543, 6564, 6563, 6983, 6984, 7005, 7004
5952, 6543, 6544, 6565, 6564, 6984, 6985, 7006, 7005
5953, 6544, 6545, 6566, 6565, 6985, 6986, 7007, 7006
5954, 6545, 6546, 6567, 6566, 6986, 6987, 7008, 7007
5955, 6546, 6547, 6568, 6567, 6987, 6988, 7009, 7008
5956, 6547, 6548, 6569, 6568, 6988, 6989, 7010, 7009
5957, 6548, 6549, 6570, 6569, 6989, 6990, 7011, 7010
5958, 6549, 6550, 6571, 6570, 6990, 6991, 7012, 7011
5959, 6550, 6551, 6572, 6571, 6991, 6992, 7013, 7012
5960, 6551, 6552, 6573, 6572, 6992, 6993, 7014, 7013
5961, 6553, 6554, 6575, 6574, 6994, 6995, 7016, 7015
5962, 6554, 6555, 6576, 6575, 6995, 6996, 7017, 7016
5963, 6555, 6556, 6577, 6576, 6996, 6997, 7018, 7017
5964, 6556, 6557, 6578, 6577, 6997, 6998, 7019, 7018
5965, 6557, 6558, 6579, 6578, 6998, 6999, 7020, 7019
5966, 6558, 6559, 6580, 6579, 6999, 7000, 7021, 7020
5967, 6559, 6560, 6581, 6580, 7000, 7001, 7022, 7021
5968, 6560, 6561, 6582, 6581, 7001, 7002, 7023, 7022
5969, 6561, 6562, 6583, 6582, 7002, 7003, 7024, 7023
5970, 6562, 6563, 6584, 6583, 7003, 7004, 7025, 7024
5971, 6563, 6564, 6585, 6584, 7004, 7005, 7026, 7025
5972, 6564, 6565, 6586, 6585, 7005, 7006, 7027, 7026
5973, 6565, 6566, 6587, 6586, 7006, 7007, 7028, 7027
5974, 6566, 6567, 6588, 6587, 7007, 7008, 7029, 7028
5975, 6567, 6568, 6589, 6588, 7008, 7009, 7030, 7029
5976, 6568, 6569, 6590, 6589, 7009, 7010, 7031, 7030
5977, 6569, 6570, 6591, 6590, 7010, 7011, 7032, 7031
5978, 6570, 6571, 6592, 6591, 7011, 7012, 7033, 7032
5979, 6571, 6572, 6593, 6592, 7012, 7013, 7034, 7033
5980, 6572, 6573, 6594, 6593, 7013, 7014, 7035, 7034
5981, 6574, 6575, 6596, 6595, 7015, 7016, 7037, 7036
5982, 6575, 6576, 6597, 6596, 7016, 7017, 7038, 7037
5983, 6576, 6577, 6598, 6597, 7017, 7018, 7039, 7038
5984, 6577, 6578, 6599, 6598, 7018, 7019, 7040, 7039
5985, 6578, 6579, 6600, 6599, 7019, 7020, 7041, 7040
5986, 6579, 6580, 6601, 6600, 7020, 7021, 7042, 7041
5987, 6580, 6581, 6602, 6601, 7021, 7022, 7043, 7042
5988, 6581, 6582, 6603, 6602, 7022, 7023, 7044, 7043
5989, 6582, 6583, 6604, 6603, 7023, 7024, 7045, 7044
5990, 6583, 6584, 6605, 6604, 7024, 7025, 7046, 7045
5991, 6584, 6585, 6606, 6605, 7025, 7026, 7047, 7046
5992, 6585, 6586, 6607, 6606, 7026, 7027, 7048, 7047
5993, 6586, 6587, 6608, 6607, 7027, 7028, 7049, 7048
5994, 6587, 6588, 6609, 6608, 7028, 7029, 7050, 7049
5995, 6588, 6589, 6610, 6609, 7029, 7030, 7051, 7050
5996, 6589, 6590, 6611, 6610, 7030, 7031, 7052, 7051
5997, 6590, 6591, 6612, 6611, 7031, 7032, 7053, 7052
5998, 6591, 6592, 6613, 6612, 7032, 7033, 7054, 7053
5999, 6592, 6593, 6614, 6613, 7033, 7034, 7055, 7054
6000, 6593, 6594, 6615, 6614, 7034, 7035, 7056, 7055
6001, 6616, 6617, 6638, 6637, 7057, 7058, 7079, 7078
6002, 6617, 6618, 6639, 6638, 7058, 7059, 7080, 7079
6003, 6618, 6619, 6640, 6639, 7059, 7060, 7081, 7080
6004, 6619, 6620, 6641, 6640, 7060, 7061, 7082, 7081
6005, 6620, 6621, 6642, 6641, 7061, 7062, 7083, 7082
6006, 6621, 6622, 6643, 6642, 7062, 7063, 7084, 7083
6007, 6622, 6623, 6644, 6643, 7063, 7064, 7085, 7084
6008, 6623, 6624, 6645, 6644, 7064, 7065, 7086, 7085
6009, 6624, 6625, 6646, 6645, 7065, 7066, 7087, 7086
6010, 6625, 6626, 6647, 6646, 7066, 7067, 7088, 7087
6011, 6626, 6627, 6648, 6647, 7067, 7068, 7089, 7088
6012, 6627, 6628, 6649, 6648, 7068, 7069, 7090, 7089
6013, 6628, 6629, 6650, 6649, 7069, 7070, 7091, 7090
6014, 6629, 6630, 6651, 6650, 7070, 7071, 7092, 7091
6015, 6630, 6631, 6652, 6651, 7071, 7072, 7093, 7092
6016, 6631, 6632, 6653, 6652, 7072, 7073, 7094, 7093
6017, 6632, 6633, 6654, 6653, 7073, 7074, 7095, 7094
6018, 6633, 6634, 6655, 6654, 7074, 7075, 7096, 7095
6019, 6634, 6635, 6656, 6655, 7075, 7076, 7097, 7096
6020, 6635, 6636, 6657, 6656, 7076, 7077, 7098, 7097
6021, 6637, 6638, 6659, 6658, 7078, 7079, 7100, 7099
6022, 6638, 6639, 6660, 6659, 7079, 7080, 7101, 7100
6023, 6639, 6640, 6661, 6660, 7080, 7081, 7102, 7101
6024, 6640, 6641, 6662, 6661, 7081, 7082, 7103, 7102
6025, 6641, 6642, 6663, 6662, 7082, 7083, 7104, 7103
6026, 6642, 6643, 6664, 6663, 7083, 7084, 7105, 7104
6027, 6643, 6644, 6665, 6664, 7084, 7085, 7106, 7105
6028, 6644, 6645, 6666, 6665, 7085, 7086, 7107, 7106
6029, 6645, 6646, 6667, 6666, 7086, 7087, 7108, 7107
6030, 6646, 6647, 6668, 6667, 7087, 7088, 7109, 7108
6031, 6647, 6648, 6669, 6668, 7088, 7089, 7110, 7109
6032, 6648, 6649, 6670, 6669, 7089, 7090, 7111, 7110
6033, 6649, 6650, 6671, 6670, 7090, 7091, 7112, 7111
6034, 6650, 6651, 6672, 6671, 7091, 7092, 7113, 7112
6035, 6651, 6652, 6673, 6672, 7092, 7093, 7114, 7113
6036, 6652, 6653, 6674, 6673, 7093, 7094, 7115, 7114
6037, 6653, 6654, 6675, 6674, 7094, 7095, 7116, 7115
6038, 6654, 6655, 6676, 6675, 7095, 7096, 7117, 7116
6039, 6655, 6656, 6677, 6676, 7096, 7097, 7118, 7117
6040, 6656, 6657, 6678, 6677, 7097, 7098, 7119, 7118
6041, 6658, 6659, 6680, 6679, 7099, 7100, 7121, 7120
6042, 6659, 6660, 6681, 6680, 7100, 7101, 7122, 7121
6043, 6660, 6661, 6682, 6681, 7101, 7102, 7123, 7122
6044, 6661, 6662, 6683, 6682, 7102, 7103, 7124, 7123
6045, 6662, 6663, 6684, 6683, 7103, 7104, 7125, 7124
6046, 6663, 6664, 6685, 6684, 7104, 7105, 7126, 7125
6047, 6664, 6665, 6686, 6685, 7105, 7106, 7127, 7126
6048, 6665, 6666, 6687, 6686, 7106, 7107, 7128, 7127
6049, 6666, 6667, 6688, 6687, 7107, 7108, 7129, 7128
6050, 6667, 6668, 6689, 6688, 7108, 7109, 7130, 7129
6051, 6668, 6669, 6690, 6689, 7109, 7110, 7131, 7130
6052, 6669, 6670, 6691, 6690, 7110, 7111, 7132, 7131
6053, 6670, 6671, 6692, 6691, 7111, 7112, 7133, 7132
6054, 6671, 6672, 6693, 6692, 7112, 7113, 7134, 7133
6055, 6672, 6673, 6694, 6693, 7113, 7114, 7135, 7134
6056, 6673, 6674, 6695, 6694, 7114, 7115, 7136, 7135
6057, 6674, 6675, 6696, 6695, 7115, 7116, 7137, 7136
6058, 6675, 6676, 6697, 6696, 7116, 7117, 7138, 7137
6059, 6676, 6677, 6698, 6697, 7117, 7118, 7139, 7138
6060, 6677, 6678, 6699, 6698, 7118, 7119, 7140, 7139
6061, 6679, 6680, 6701, 6700, 7120, 7121, 7142, 7141
6062, 6680, 6681, 6702, 6701, 7121, 7122, 7143, 7142
6063, 6681, 6682, 6703, 6702, 7122, 7123, 7144, 7143
6064, 6682, 6683, 6704, 6703, 7123, 7124, 7145, 7144
6065, 6683, 6684, 6705, 6704, 7124, 7125, 7146, 7145
6066, 6684, 6685, 6706, 6705, 7125, 7126, 7147, 7146
6067, 6685, 6686, 6707, 6706, 7126, 7127, 7148, 7147
6068, 6686, 6687, 6708, 6707, 7127, 7128, 7149, 7148
6069, 6687, 6688, 6709, 6708, 7128, 7129, 7150, 7149
6070, 6688, 6689, 6710, 6709, 7129, 7130, 7151, 7150
6071, 6689, 6690, 6711, 6710, 7130, 7131, 7152, 7151
6072, 6690, 6691, 6712, 6711, 7131, 7132, 7153, 7152
6073, 6691, 6692, 6713, 6712, 7132, 7133, 7154, 7153
6074, 6692, 6693, 6714, 6713, 7133, 7134, 7155, 7154
6075, 6693, 6694, 6715, 6714, 7134, 7135, 7156, 7155
6076, 6694, 6695, 6716, 6715, 7135, 7136, 7157, 7156
6077, 6695, 6696, 6717, 6716, 7136, 7137, 7158, 7157
6078, 6696, 6697, 6718, 6717, 7137, 7138, 7159, 7158
6079, 6697, 6698, 6719, 6718, 7138, 7139, 7160, 7159
6080, 6698, 6699, 6720, 6719, 7139, 7140, 7161, 7160
6081, 6700, 6701, 6722, 6721, 7141, 7142, 7163, 7162
6082, 6701, 6702, 6723, 6722, 7142, 7143, 7164, 7163
6083, 6702, 6703, 6724, 6723, 7143, 7144, 7165, 7164
6084, 6703, 6704, 6725, 6724, 7144, 7145, 7166, 7165
6085, 6704, 6705, 6726, 6725, 7145, 7146, 7167, 7166
6086, 6705, 6706, 6727, 6726, 7146, 7147, 7168, 7167
6087, 6706, 6707, 6728, 6727, 7147, 7148, 7169, 7168
6088, 6707, 6708, 6729, 6728, 7148, 7149, 7170, 7169
6089, 6708, 6709, 6730, 6729, 7149, 7150, 7171, 7170
6090, 6709, 6710, 6731, 6730, 7150, 7151, 7172, 7171
6091, 6710, 6711, 6732, 6731, 7151, 7152, 7173, 7172
6092, 6711, 6712, 6733, 6732, 7152, 7153, 7174, 7173
6093, 6712, 6713, 6734, 6733, 7153, 7154, 7175, 7174
6094, 6713, 6714, 6735, 6734, 7154, 7155, 7176, 7175
6095, 6714, 6715, 6736, 6735, 7155, 7156, 7177, 7176
6096, 6715, 6716, 6737, 6736, 7156, 7157, 7178, 7177
6097, 6716, 6717, 6738, 6737, 7157, 7158, 7179, 7178
6098, 6717, 6718, 6739, 6738, 7158, 7159, 7180, 7179
6099, 6718, 6719, 6740, 6739, 7159, 7160, 7181, 7180
6100, 6719, 6720, 6741, 6740, 7160, 7161, 7182, 7181
6101, 6721, 6722, 6743, 6742, 7162, 7163, 7184, 7183
6102, 6722, 6723, 6744, 6743, 7163, 7164, 7185, 7184
6103, 6723, 6724, 6745, 6744, 7164, 7165, 7186, 7185
6104, 6724, 6725, 6746, 6745, 7165, 7166, 7187, 7186
6105, 6725, 6726, 6747, 6746, 7166, 7167, 7188, 7187
6106, 6726, 6727, 6748, 6747, 7167, 7168, 7189, 7188
6107, 6727, 6728, 6749, 6748, 7168, 7169, 7190, 7189
6108, 6728, 6729, 6750, 6749, 7169, 7170, 7191, 7190
6109, 6729, 6730, 6751, 6750, 7170, 7171, 7192, 7191
6110, 6730, 6731, 6752, 6751, 7171, 7172, 7193, 7192
6111, 6731, 6732, 6753, 6752, 7172, 7173, 7194, 7193
6112, 6732, 6733, 6754, 6753, 7173, 7174, 7195, 7194
6113, 6733, 6734, 6755, 6754, 7174, 7175, 7196, 7195
6114, 6734, 6735, 6756, 6755, 7175, 7176, 7197, 7196
6115, 6735, 6736, 6757, 6756, 7176, 7177, 7198, 7197
6116, 6736, 6737, 6758, 6757, 7177, 7178, 7199, 7198
6117, 6737, 6738, 6759, 6758, 7178, 7179, 7200, 7199
6118, 6738, 6739, 6760, 6759, 7179, 7180, 7201, 7200
6119, 6739, 6740, 6761, 6760, 7180, 7181, 7202, 7201
6120, 6740, 6741, 6762, 6761, 7181, 7182, 7203, 7202
6121, 6742, 6743, 6764, 6763, 7183, 7184, 7205, 7204
6122, 6743, 6744, 6765, 6764, 7184, 7185, 7206, 7205
6123, 6744, 6745, 6766, 6765, 7185, 7186, 7207, 7206
6124, 6745, 6746, 6767, 6766, 7186, 7187, 7208, 7207
6125, 6746, 6747, 6768, 6767, 7187, 7188, 7209, 7208
6126, 6747, 6748, 6769, 6768, 7188, 7189, 7210, 7209
6127, 6748, 6749, 6770, 6769, 7189, 7190, 7211, 7210
6128, 6749, 6750, 6771, 6770, 7190, 7191, 7212, 7211
6129, 6750, 6751, 6772, 6771, 7191, 7192, 7213, 7212
6130, 6751, 6752, 6773, 6772, 7192, 7193, 7214, 7213
6131, 6752, 6753, 6774, 6773, 7193, 7194, 7215, 7214
6132, 6753, 6754, 6775, 6774, 7194, 7195, 7216, 7215
6133, 6754, 6755, 6776, 6775, 7195, 7196, 7217, 7216
6134, 6755, 6756, 6777, 6776, 7196, 7197, 7218, 7217
6135, 6756, 6757, 6778, 6777, 7197, 7198, 7219, 7218
6136, 6757, 6758, 6779, 6778, 7198, 7199, 7220, 7219
6137, 6758, 6759, 6780, 6779, 7199, 7200, 7221, 7220
6138, 6759, 6760, 6781, 6780, 7200, 7201, 7222, 7221
6139, 6760, 6761, 6782, 6781, 7201, 7202, 7223, 7222
6140, 6761, 6762, 6783, 6782, 7202, 7203, 7224, 7223
6141, 6763, 6764, 6785, 6784, 7204, 7205, 7226, 7225
6142, 6764, 6765, 6786, 6785, 7205, 7206, 7227, 7226
6143, 6765, 6766, 6787, 6786, 7206, 7207, 7228, 7227
6144, 6766, 6767, 6788, 6787, 7207, 7208, 7229, 7228
6145, 6767, 6768, 6789, 6788, 7208, 7209, 7230, 7229
6146, 6768, 6769, 6790, 6789, 7209, 7210, 7231, 7230
6147, 6769, 6770, 6791, 6790, 7210, 7211, 7232, 7231
6148, 6770, 6771, 6792, 6791, 7211, 7212, 7233, 7232
6149, 6771, 6772, 6793, 6792, 7212, 7213, 7234, 7233
6150, 6772, 6773, 6794, 6793, 7213, 7214, 7235, 7234
6151, 6773, 6774, 6795, 6794, 7214, 7215, 7236, 7235
6152, 6774, 6775, 6796, 6795, 7215, 7216, 7237, 7236
6153, 6775, 6776, 6797, 6796, 7216, 7217, 7238, 7237
6154, 6776, 6777, 6798, 6797, 7217, 7218, 7239, 7238
6155, 6777, 6778, 6799, 6798, 7218, 7219, 7240, 7239
6156, 6778, 6779, 6800, 6799, 7219, 7220, 7241, 7240
6157, 6779, 6780, 6801, 6800, 7220, 7221, 7242, 7241
6158, 6780, 6781, 6802, 6801, 7221, 7222, 7243, 7242
6159, 6781, 6782, 6803, 6802, 7222, 7223, 7244, 7243
6160, 6782, 6783, 6804, 6803, 7223, 7224, 7245, 7244
6161, 6784, 6785, 6806, 6805, 7225, 7226, 7247, 7246
6162, 6785, 6786, 6807, 6806, 7226, 7227, 7248, 7247
6163, 6786, 6787, 6808, 6807, 7227, 7228, 7249, 7248
6164, 6787, 6788, 6809, 6808, 7228, 7229, 7250, 7249
6165, 6788, 6789, 6810, 6809, 7229, 7230, 7251, 7250
6166, 6789, 6790, 6811, 6810, 7230, 7231, 7252, 7251
6167, 6790, 6791, 6812, 6811, 7231, 7232, 7253, 7252
6168, 6791, 6792, 6813, 6812, 7232, 7233, 7254, 7253
6169, 6792, 6793, 6814, 6813, 7233, 7234, 7255, 7254
6170, 6793, 6794, 6815, 6814, 7234, 7235, 7256, 7255
6171, 6794, 6795, 6816, 6815, 7235, 7236, 7257, 7256
6172, 6795, 6796, 6817, 6816, 7236, 7237, 7258, 7257
6173, 6796, 6797, 6818, 6817, 7237, 7238, 7259, 7258
6174, 6797, 6798, 6819, 6818, 7238, 7239, 7260, 7259
6175, 6798, 6799, 6820, 6819, 7239, 7240, 7261, 7260
6176, 6799, 6800, 6821, 6820, 7240, 7241, 7262, 7261
6177, 6800, 6801, 6822, 6821, 7241, 7242, 7263, 7262
6178, 6801, 6802, 6823, 6822, 7242, 7243, 7264, 7263
6179, 6802, 6803, 6824, 6823, 7243, 7244, 7265, 7264
6180, 6803, 6804, 6825, 6824, 7244, 7245, 7266, 7265
6181, 6805, 6806, 6827, 6826, 7246, 7247, 7268, 7267
6182, 6806, 6807, 6828, 6827, 7247, 7248, 7269, 7268
6183, 6807, 6808, 6829, 6828, 7248, 7249, 7270, 7269
6184, 6808, 6809, 6830, 6829, 7249, 7250, 7271, 7270
6185, 6809, 6810, 6831, 6830, 7250, 7251, 7272, 7271
6186, 6810, 6811, 6832, 6831, 7251, 7252, 7273, 7272
6187, 6811, 6812, 6833, 6832, 7252, 7253, 7274, 7273
6188, 6812, 6813, 6834, 6833, 7253, 7254, 7275, 7274
6189, 6813, 6814, 6835, 6834, 7254, 7255, 7276, 7275
6190, 6814, 6815, 6836, 6835, 7255, 7256, 7277, 7276
6191, 6815, 6816, 6837, 6836, 7256, 7257, 7278, 7277
6192, 6816, 6817, 6838, 6837, 7257, 7258, 7279, 7278
6193, 6817, 6818, 6839, 6838, 7258, 7259, 7280, 7279
6194, 6818, 6819, 6840, 6839, 7259, 7260, 7281, 7280
6195, 6819, 6820, 6841, 6840, 7260, 7261, 7282, 7281
6196, 6820, 6821, 6842, 6841, 7261, 7262, 7283, 7282
6197, 6821, 6822, 6843, 6842, 7262, 7263, 7284, 7283
6198, 6822, 6823, 6844, 6843, 7263, 7264, 7285, 7284
6199, 6823, 6824, 6845, 6844, 7264, 7265, 7286, 7285
6200, 6824, 6825, 6846, 6845, 7265, 7266, 7287, 7286
6201, 6826, 6827, 6848, 6847, 7267, 7268, 7289, 7288
6202, 6827, 6828, 6849, 6848, 7268, 7269, 7290, 7289
6203, 6828, 6829, 6850, 6849, 7269, 7270, 7291, 7290
6204, 6829, 6830, 6851, 6850, 7270, 7271, 7292, 7291
6205, 6830, 6831, 6852, 6851, 7271, 7272, 7293, 7292
6206, 6831, 6832, 6853, 6852, 7272, 7273, 7294, 7293
6207, 6832, 6833, 6854, 6853, 7273, 7274, 7295, 7294
6208, 6833, 6834, 6855, 6854, 7274, 7275, 7296, 7295
6209, 6834, 6835, 6856, 6855, 7275, 7276, 7297, 7296
6210, 6835, 6836, 6857, 6856, 7276, 7277, 7298, 7297
6211, 6836, 6837, 6858, 6857, 7277, 7278, 7299, 7298
6212, 6837, 6838, 6859, 6858, 7278, 7279, 7300, 7299
6213, 6838, 6839, 6860, 6859, 7279, 7280, 7301, 7300
6214, 6839, 6840, 6861, 6860, 7280, 7281, 7302, 7301
6215, 6840, 6841, 6862, 6861, 7281, 7282, 7303, 7302
6216, 6841, 6842, 6863, 6862, 7282, 7283, 7304, 7303
6217, 6842, 6843, 6864, 6863, 7283, 7284, 7305, 7304
6218, 6843, 6844, 6865, 6864, 7284, 7285, 7306, 7305
6219, 6844, 6845, 6866, 6865, 7285, 7286, 7307, 7306
6220, 6845, 6846, 6867, 6866, 7286, 7287, 7308, 7307
6221, 6847, 6848, 6869, 6868, 7288, 7289, 7310, 7309
6222, 6848, 6849, 6870, 6869, 7289, 7290, 7311, 7310
6223, 6849, 6850, 6871, 6870, 7290, 7291, 7312, 7311
6224, 6850, 6851, 6872, 6871, 7291, 7292, 7313, 7312
6225, 6851, 6852, 6873, 6872, 7292, 7293, 7314, 7313
6226, 6852, 6853, 6874, 6873, 7293, 7294, 7315, 7314
6227, 6853, 6854, 6875, 6874, 7294, 7295, 7316, 7315
6228, 6854, 6855, 6876, 6875, 7295, 7296, 7317, 7316
6229, 6855, 6856, 6877, 6876, 7296, 7297, 7318, 7317
6230, 6856, 6857, 6878, 6877, 7297, 7298, 7319, 7318
6231, 6857, 6858, 6879, 6878, 7298, 7299, 7320, 7319
6232, 6858, 6859, 6880, 6879, 7299, 7300, 7321, 7320
6233, 6859, 6860, 6881, 6880, 7300, 7301, 7322, 7321
6234, 6860, 6861, 6882, 6881, 7301, 7302, 7323, 7322
6235, 6861, 6862, 6883, 6882, 7302, 7303, 7324, 7323
6236, 6862, 6863, 6884, 6883, 7303, 7304, 7325, 7324
6237, 6863, 6864, 6885, 6884, 7304, 7305, 7326, 7325
6238, 6864, 6865, 6886, 6885, 7305, 7306, 7327, 7326
6239, 6865, 6866, 6887, 6886, 7306, 7307, 7328, 7327
6240, 6866, 6867, 6888, 6887, 7307, 7308, 7329, 7328
6241, 6868, 6869, 6890, 6889, 7309, 7310, 7331, 7330
6242, 6869, 6870, 6891, 6890, 7310, 7311, 7332, 7331
6243, 6870, 6871, 6892, 6891, 7311, 7312, 7333, 7332
6244, 6871, 6872, 6893, 6892, 7312, 7313, 7334, 7333
6245, 6872, 6873, 6894, 6893, 7313, 7314, 7335, 7334
6246, 6873, 6874, 6895, 6894, 7314, 7315, 7336, 7335
6247, 6874, 6875, 6896, 6895, 7315, 7316, 7337, 7336
6248, 6875, 6876, 6897, 6896, 7316, 7317, 7338, 7337
6249, 6876, 6877, 6898, 6897, 7317, 7318, 7339, 7338
6250, 6877, 6878, 6899, 6898, 7318, 7319, 7340, 7339
6251, 6878, 6879, 6900, 6899, 7319, 7320, 7341, 7340
6252, 6879, 6880, 6901, 6900, 7320, 7321, 7342, 7341
6253, 6880, 6881, 6902, 6901, 7321, 7322, 7343, 7342
6254, 6881, 6882, 6903, 6902, 7322, 7323, 7344, 7343
6255, 6882, 6883, 6904, 6903, 7323, 7324, 7345, 7344
6256, 6883, 6884, 6905, 6904, 7324, 7325, 7346, 7345
6257, 6884, 6885, 6906, 6905, 7325, 7326, 7347, 7346
6258, 6885, 6886, 6907, 6906, 7326, 7327, 7348, 7347
6259, 6886, 6887, 6908, 6907, 7327, 7328, 7349, 7348
6260, 6887, 6888, 6909, 6908, 7328, 7329, 7350, 7349
6261, 6889, 6890, 6911, 6910, 7330, 7331, 7352, 7351
6262, 6890, 6891, 6912, 6911, 7331, 7332, 7353, 7352
6263, 6891, 6892, 6913, 6912, 7332, 7333, 7354, 7353
6264, 6892, 6893, 6914, 6913, 7333, 7334, 7355, 7354
6265, 6893, 6894, 6915, 6914, 7334, 7335, 7356, 7355
6266, 6894, 6895, 6916, 6915, 7335, 7336, 7357, 7356
6267, 6895, 6896, 6917, 6916, 7336, 7337, 7358, 7357
6268, 6896, 6897, 6918, 6917, 7337, 7338, 7359, 7358
6269, 6897, 6898, 6919, 6918, 7338, 7339, 7360, 7359
6270, 6898, 6899, 6920, 6919, 7339, 7340, 7361, 7360
6271, 6899, 6900, 6921, 6920, 7340, 7341, 7362, 7361
6272, 6900, 6901, 6922, 6921, 7341, 7342, 7363, 7362
6273, 6901, 6902, 6923, 6922, 7342, 7343, 7364, 7363
6274, 6902, 6903, 6924, 6923, 7343, 7344, 7365, 7364
6275, 6903, 6904, 6925, 6924, 7344, 7345, 7366, 7365
6276, 6904, 6905, 6926, 6925, 7345, 7346, 7367, 7366
6277, 6905, 6906, 6927, 6926, 7346, 7347, 7368, 7367
6278, 6906, 6907, 6928, 6927, 7347, 7348, 7369, 7368
6279, 6907, 6908, 6929, 6928, 7348, 7349, 7370, 7369
6280, 6908, 6909, 6930, 6929, 7349, 7350, 7371, 7370
6281, 6910, 6911, 6932, 6931, 7351, 7352, 7373, 7372
6282, 6911, 6912, 6933, 6932, 7352, 7353, 7374, 7373
6283, 6912, 6913, 6934, 6933, 7353, 7354, 7375, 7374
6284, 6913, 6914, 6935, 6934, 7354, 7355, 7376, 7375
6285, 6914, 6915, 6936, 6935, 7355, 7356, 7377, 7376
6286, 6915, 6916, 6937, 6936, 7356, 7357, 7378, 7377
6287, 6916, 6917, 6938, 6937, 7357, 7358, 7379, 7378
6288, 6917, 6918, 6939, 6938, 7358, 7359, 7380, 7379
6289, 6918, 6919, 6940, 6939, 7359, 7360, 7381, 7380
6290, 6919, 6920, 6941, 6940, 7360, 7361, 7382, 7381
6291, 6920, 6921, 6942, 6941, 7361, 7362, 7383, 7382
6292, 6921, 6922, 6943, 6942, 7362, 7363, 7384, 7383
6293, 6922, 6923, 6944, 6943, 7363, 7364, 7385, 7384
6294, 6923, 6924, 6945, 6944, 7364, 7365, 7386, 7385
6295, 6924, 6925, 6946, 6945, 7365, 7366, 7387, 7386
6296, 6925, 6926, 6947, 6946, 7366, 7367, 7388, 7387
6297, 6926, 6927, 6948, 6947, 7367, 7368, 7389, 7388
6298, 6927, 6928, 6949, 6948, 7368, 7369, 7390, 7389
6299, 6928, 6929, 6950, 6949, 7369, 7370, 7391, 7390
6300, 6929, 6930, 6951, 6950, 7370, 7371, 7392, 7391
6301, 6931, 6932, 6953, 6952, 7372, 7373, 7394, 7393
6302, 6932, 6933, 6954, 6953, 7373, 7374, 7395, 7394
6303, 6933, 6934, 6955, 6954, 7374, 7375, 7396, 7395
6304, 6934, 6935, 6956, 6955, 7375, 7376, 7397, 7396
6305, 6935, 6936, 6957, 6956, 7376, 7377, 7398, 7397
6306, 6936, 6937, 6958, 6957, 7377, 7378, 7399, 7398
6307, 6937, 6938, 6959, 6958, 7378, 7379, 7400, 7399
6308, 6938, 6939, 6960, 6959, 7379, 7380, 7401, 7400
6309, 6939, 6940, 6961, 6960, 7380, 7381, 7402, 7401
6310, 6940, 6941, 6962, 6961, 7381, 7382, 7403, 7402
6311, 6941, 6942, 6963, 6962, 7382, 7383, 7404, 7403
6312, 6942, 6943, 6964, 6963, 7383, 7384, 7405, 7404
6313, 6943, 6944, 6965, 6964, 7384, 7385, 7406, 7405
6314, 6944, 6945, 6966, 6965, 7385, 7386, 7407, 7406
6315, 6945, 6946, 6967, 6966, 7386, 7387, 7408, 7407
6316, 6946, 6947, 6968, 6967, 7387, 7388, 7409, 7408
6317, 6947, 6948, 6969, 6968, 7388, 7389, 7410, 7409
6318, 6948, 6949, 6970, 6969, 7389, 7390, 7411, 7410
6319, 6949, 6950, 6971, 6970, 7390, 7391, 7412, 7411
6320, 6950, 6951, 6972, 6971, 7391, 7392, 7413, 7412
6321, 6952, 6953, 6974, 6973, 7393, 7394, 7415, 7414
6322, 6953, 6954, 6975, 6974, 7394, 7395, 7416, 7415
6323, 6954, 6955, 6976, 6975, 7395, 7396, 7417, 7416
6324, 6955, 6956, 6977, 6976, 7396, 7397, 7418, 7417
6325, 6956, 6957, 6978, 6977, 7397, 7398, 7419, 7418
6326, 6957, 6958, 6979, 6978, 7398, 7399, 7420, 7419
6327, 6958, 6959, 6980, 6979, 7399, 7400, 7421, 7420
6328, 6959, 6960, 6981, 6980, 7400, 7401, 7422, 7421
6329, 6960, 6961, 6982, 6981, 7401, 7402, 7423, 7422
6330, 6961, 6962, 6983, 6982, 7402, 7403, 7424, 7423
6331, 6962, 6963, 6984, 6983, 7403, 7404, 7425, 7424
6332, 6963, 6964, 6985, 6984, 7404, 7405, 7426, 7425
6333, 6964, 6965, 6986, 6985, 7405, 7406, 7427, 7426
6334, 6965, 6966, 6987, 6986, 7406, 7407, 7428, 7427
6335, 6966, 6967, 6988, 6987, 7407, 7408, 7429, 7428
6336, 6967, 6968, 6989, 6988, 7408, 7409, 7430, 7429
6337, 6968, 6969, 6990, 6989, 7409, 7410, 7431, 7430
6338, 6969, 6970, 6991, 6990, 7410, 7411, 7432, 7431
6339, 6970, 6971, 6992, 6991, 7411, 7412, 7433, 7432
6340, 6971, 6972, 6993, 6992, 7412, 7413, 7434, 7433
6341, 6973, 6974, 6995, 6994, 7414, 7415, 7436, 7435
6342, 6974, 6975, 6996, 6995, 7415, 7416, 7437, 7436
6343, 6975, 6976, 6997, 6996, 7416, 7417, 7438, 7437
6344, 6976, 6977, 6998, 6997, 7417, 7418, 7439, 7438
6345, 6977, 6978, 6999, 6998, 7418, 7419, 7440, 7439
6346, 6978, 6979, 7000, 6999, 7419, 7420, 7441, 7440
6347, 6979, 6980, 7001, 7000, 7420, 7421, 7442, 7441
6348, 6980, 6981, 7002, 7001, 7421, 7422, 7443, 7442
6349, 6981, 6982, 7003, 7002, 7422, 7423, 7444, 7443
6350, 6982, 6983, 7004, 7003, 7423, 7424, 7445, 7444
6351, 6983, 6984, 7005, 7004, 7424, 7425, 7446, 7445
6352, 6984, 6985, 7006, 7005, 7425, 7426, 7447, 7446
6353, 6985, 6986, 7007, 7006, 7426, 7427, 7448, 7447
6354, 6986, 6987, 7008, 7007, 7427, 7428, 7449, 7448
6355, 6987, 6988, 7009, 7008, 7428, 7429, 7450, 7449
6356, 6988, 6989, 7010, 7009, 7429, 7430, 7451, 7450
6357, 6989, 6990, 7011, 7010, 7430, 7431, 7452, 7451
6358, 6990, 6991, 7012, 7011, 7431, 7432, 7453, 7452
6359, 6991, 6992, 7013, 7012, 7432, 7433, 7454, 7453
6360, 6992, 6993, 7014, 7013, 7433, 7434, 7455, 7454
6361, 6994, 6995, 7016, 7015, 7435, 7436, 7457, 7456
6362, 6995, 6996, 7017, 7016, 7436, 7437, 7458, 7457
6363, 6996, 6997, 7018, 7017, 7437, 7438, 7459, 7458
6364, 6997, 6998, 7019, 7018, 7438, 7439, 7460, 7459
6365, 6998, 6999, 7020, 7019, 7439, 7440, 7461, 7460
6366, 6999, 7000, 7021, 7020, 7440, 7441, 7462, 7461
6367, 7000, 7001, 7022, 7021, 7441, 7442, 7463, 7462
6368, 7001, 7002, 7023, 7022, 7442, 7443, 7464, 7463
6369, 7002, 7003, 7024, 7023, 7443, 7444, 7465, 7464
6370, 7003, 7004, 7025, 7024, 7444, 7445, 7466, 7465
6371, 7004, 7005, 7026, 7025, 7445, 7446, 7467, 7466
6372, 7005, 7006, 7027, 7026, 7446, 7447, 7468, 7467
6373, 7006, 7007, 7028, 7027, 7447, 7448, 7469, 7468
6374, 7007, 7008, 7029, 7028, 7448, 7449, 7470, 7469
6375, 7008, 7009, 7030, 7029, 7449, 7450, 7471, 7470
6376, 7009, 7010, 7031, 7030, 7450, 7451, 7472, 7471
6377, 7010, 7011, 7032, 7031, 7451, 7452, 7473, 7472
6378, 7011, 7012, 7033, 7032, 7452, 7453, 7474, 7473
6379, 7012, 7013, 7034, 7033, 7453, 7454, 7475, 7474
6380, 7013, 7014, 7035, 7034, 7454, 7455, 7476, 7475
6381, 7015, 7016, 7037, 7036, 7456, 7457, 7478, 7477
6382, 7016, 7017, 7038, 7037, 7457, 7458, 7479, 7478
6383, 7017, 7018, 7039, 7038, 7458, 7459, 7480, 7479
6384, 7018, 7019, 7040, 7039, 7459, 7460, 7481, 7480
6385, 7019, 7020, 7041, 7040, 7460, 7461, 7482, 7481
6386, 7020, 7021, 7042, 7041, 7461, 7462, 7483, 7482
6387, 7021, 7022, 7043, 7042, 7462, 7463, 7484, 7483
6388, 7022, 7023, 7044, 7043, 7463, 7464, 7485, 7484
6389, 7023, 7024, 7045, 7044, 7464, 7465, 7486, 7485
6390, 7024, 7025, 7046, 7045, 7465, 7466, 7487, 7486
6391, 7025, 7026, 7047, 7046, 7466, 7467, 7488, 7487
6392, 7026, 7027, 7048, 7047, 7467, 7468, 7489, 7488
6393, 7027, 7028, 7049, 7048, 7468, 7469, 7490, 7489
6394, 7028, 7029, 7050, 7049, 7469, 7470, 7491, 7490
6395, 7029, 7030, 7051, 7050, 7470, 7471, 7492, 7491
6396, 7030, 7031, 7052, 7051, 7471, 7472, 7493, 7492
6397, 7031, 7032, 7053, 7052, 7472, 7473, 7494, 7493
6398, 7032, 7033, 7054, 7053, 7473, 7474, 7495, 7494
6399, 7033, 7034, 7055, 7054, 7474, 7475, 7496, 7495
6400, 7034, 7035, 7056, 7055, 7475, 7476, 7497, 7496
*ELSET, ELSET=PLY1
1, 2, 3, 4, 5, 6, 7, 8, 9, 10, 11, 12
13, 14, 15, 16, 17, 18, 19, 20, 21, 22, 23, 24
25, 26, 27, 28, 29, 30, 31, 32, 33, 34, 35, 36
37, 38, 39, 40, 41, 42, 43, 44, 45, 46, 47, 48
49, 50, 51, 52, 53, 54, 55, 56, 57, 58, 59, 60
61, 62, 63, 64, 65, 66, 67, 68, 69, 70, 71, 72
73, 74, 75, 76, 77, 78, 79, 80, 81, 82, 83, 84
85, 86, 87, 88, 89, 90, 91, 92, 93, 94, 95, 96
97, 98, 99, 100, 101, 102, 103, 104, 105, 106, 107, 108
109, 110, 111, 112, 113, 114, 115, 116, 117, 118, 119, 120
121, 122, 123, 124, 125, 126, 127, 128, 129, 130, 131, 132
133, 134, 135, 136, 137, 138, 139, 140, 141, 142, 143, 144
145, 146, 147, 148, 149, 150, 151, 152, 153, 154, 155, 156
157, 158, 159, 160, 161, 162, 163, 164, 165, 166, 167, 168
169, 170, 171, 172, 173, 174, 175, 176, 177, 178, 179, 180
181, 182, 183, 184, 185, 186, 187, 188, 189, 190, 191, 192
193, 194, 195, 196, 197, 198, 199, 200, 201, 202, 203, 204
205, 206, 207, 208, 209, 210, 211, 212, 213, 214, 215, 216
217, 218, 219, 220, 221, 222, 223, 224, 225, 226, 227, 228
229, 230, 231, 232, 233, 234, 235, 236, 237, 238, 239, 240
241, 242, 243, 244, 245, 246, 247, 248, 249, 250, 251, 252
253, 254, 255, 256, 257, 258, 259, 260, 261, 262, 263, 264
265, 266, 267, 268, 269, 270, 271, 272, 273, 274, 275, 276
277, 278, 279, 280, 281, 282, 283, 284, 285, 286, 287, 288
289, 290, 291, 292, 293, 294, 295, 296, 297, 298, 299, 300
301, 302, 303, 304, 305, 306, 307, 308, 309, 310, 311, 312
313, 314, 315, 316, 317, 318, 319, 320, 321, 322, 323, 324
325, 326, 327, 328, 329, 330, 331, 332, 333, 334, 335, 336
337, 338, 339, 340, 341, 342, 343, 344, 345, 346, 347, 348
349, 350, 351, 352, 353, 354, 355, 356, 357, 358, 359, 360
361, 362, 363, 364, 365, 366, 367, 368, 369, 370, 371, 372
373, 374, 375, 376, 377, 378, 379, 380, 381, 382, 383, 384
385, 386, 387, 388, 389, 390, 391, 392, 393, 394, 395, 396
397, 398, 399, 400
*ELSET, ELSET=PLY2
401, 402, 403, 404, 405, 406, 407, 408, 409, 410, 411, 412
413, 414, 415, 416, 417, 418, 419, 420, 421, 422, 423, 424
425, 426, 427, 428, 429, 430, 431, 432, 433, 434, 435, 436
437, 438, 439, 440, 441, 442, 443, 444, 445, 446, 447, 448
449, 450, 451, 452, 453, 454, 455, 456, 457, 458, 459, 460
461, 462, 463, 464, 465, 466, 467, 468, 469, 470, 471, 472
473, 474, 475, 476, 477, 478, 479, 480, 481, 482, 483, 484
485, 486, 487, 488, 489, 490, 491, 492, 493, 494, 495, 496
497, 498, 499, 500, 501, 502, 503, 504, 505, 506, 507, 508
509, 510, 511, 512, 513, 514, 515, 516, 517, 518, 519, 520
521, 522, 523, 524, 525, 526, 527, 528, 529, 530, 531, 532
533, 534, 535, 536, 537, 538, 539, 540, 541, 542, 543, 544
545, 546, 547, 548, 549, 550, 551, 552, 553, 554, 555, 556
557, 558, 559, 560, 561, 562, 563, 564, 565, 566, 567, 568
569, 570, 571, 572, 573, 574, 575, 576, 577, 578, 579, 580
581, 582, 583, 584, 585, 586, 587, 588, 589, 590, 591, 592
593, 594, 595, 596, 597, 598, 599, 600, 601, 602, 603, 604
605, 606, 607, 608, 609, 610, 611, 612, 613, 614, 615, 616
617, 618, 619, 620, 621, 622, 623, 624, 625, 626, 627, 628
629, 630, 631, 632, 633, 634, 635, 636, 637, 638, 639, 640
641, 642, 643, 644, 645, 646, 647, 648, 649, 650, 651, 652
653, 654, 655, 656, 657, 658, 659, 660, 661, 662, 663, 664
665, 666, 667, 668, 669, 670, 671, 672, 673, 674, 675, 676
677, 678, 679, 680, 681, 682, 683, 684, 685, 686, 687, 688
689, 690, 691, 692, 693, 694, 695, 696, 697, 698, 699, 700
701, 702, 703, 704, 705, 706, 707, 708, 709, 710, 711, 712
713, 714, 715, 716, 717, 718, 719, 720, 721, 722, 723, 724
725, 726, 727, 728, 729, 730, 731, 732, 733, 734, 735, 736
737, 738, 739, 740, 741, 742, 743, 744, 745, 746, 747, 748
749, 750, 751, 752, 753, 754, 755, 756, 757, 758, 759, 760
761, 762, 763, 764, 765, 766, 767, 768, 769, 770, 771, 772
773, 774, 775, 776, 777, 778, 779, 780, 781, 782, 783, 784
785, 786, 787, 788, 789, 790, 791, 792, 793, 794, 795, 796
797, 798, 799, 800
*ELSET, ELSET=PLY3
801, 802, 803, 804, 805, 806, 807, 808, 809, 810, 811, 812
813, 814, 815, 816, 817, 818, 819, 820, 821, 822, 823, 824
825, 826, 827, 828, 829, 830, 831, 832, 833, 834, 835, 836
837, 838, 839, 840, 841, 842, 843, 844, 845, 846, 847, 848
849, 850, 851, 852, 853, 854, 855, 856, 857, 858, 859, 860
861, 862, 863, 864, 865, 866, 867, 868, 869, 870, 871, 872
873, 874, 875, 876, 877, 878, 879, 880, 881, 882, 883, 884
885, 886, 887, 888, 889, 890, 891, 892, 893, 894, 895, 896
897, 898, 899, 900, 901, 902, 903, 904, 905, 906, 907, 908
909, 910, 911, 912, 913, 914, 915, 916, 917, 918, 919, 920
921, 922, 923, 924, 925, 926, 927, 928, 929, 930, 931, 932
933, 934, 935, 936, 937, 938, 939, 940, 941, 942, 943, 944
945, 946, 947, 948, 949, 950, 951, 952, 953, 954, 955, 956
957, 958, 959, 960, 961, 962, 963, 964, 965, 966, 967, 968
969, 970, 971, 972, 973, 974, 975, 976, 977, 978, 979, 980
981, 982, 983, 984, 985, 986, 987, 988, 989, 990, 991, 992
993, 994, 995, 996, 997, 998, 999, 1000, 1001, 1002, 1003, 1004
1005, 1006, 1007, 1008, 1009, 1010, 1011, 1012, 1013, 1014, 1015, 1016
1017, 1018, 1019, 1020, 1021, 1022, 1023, 1024, 1025, 1026, 1027, 1028
1029, 1030, 1031, 1032, 1033, 1034, 1035, 1036, 1037, 1038, 1039, 1040
1041, 1042, 1043, 1044, 1045, 1046, 1047, 1048, 1049, 1050, 1051, 1052
1053, 1054, 1055, 1056, 1057, 1058, 1059, 1060, 1061, 1062, 1063, 1064
1065, 1066, 1067, 1068, 1069, 1070, 1071, 1072, 1073, 1074, 1075, 1076
1077, 1078, 1079, 1080, 1081, 1082, 1083, 1084, 1085, 1086, 1087, 1088
1089, 1090, 1091, 1092, 1093, 1094, 1095, 1096, 1097, 1098, 1099, 1100
1101, 1102, 1103, 1104, 1105, 1106, 1107, 1108, 1109, 1110, 1111, 1112
1113, 1114, 1115, 1116, 1117, 1118, 1119, 1120, 1121, 1122, 1123, 1124
1125, 1126, 1127, 1128, 1129, 1130, 1131, 1132, 1133, 1134, 1135, 1136
1137, 1138, 1139, 1140, 1141, 1142, 1143, 1144, 1145, 1146, 1147, 1148
1149, 1150, 1151, 1152, 1153, 1154, 1155, 1156, 1157, 1158, 1159, 1160
1161, 1162, 1163, 1164, 1165, 1166, 1167, 1168, 1169, 1170, 1171, 1172
1173, 1174, 1175, 1176, 1177, 1178, 1179, 1180, 1181, 1182, 1183, 1184
1185, 1186, 1187, 1188, 1189, 1190, 1191, 1192, 1193, 1194, 1195, 1196
1197, 1198, 1199, 1200
*ELSET, ELSET=PLY4
1201, 1202, 1203, 1204, 1205, 1206, 1207, 1208, 1209, 1210, 1211, 1212
1213, 1214, 1215, 1216, 1217, 1218, 1219, 1220, 1221, 1222, 1223, 1224
1225, 1226, 1227, 1228, 1229, 1230, 1231, 1232, 1233, 1234, 1235, 1236
1237, 1238, 1239, 1240, 1241, 1242, 1243, 1244, 1245, 1246, 1247, 1248
1249, 1250, 1251, 1252, 1253, 1254, 1255, 1256, 1257, 1258, 1259, 1260
1261, 1262, 1263, 1264, 1265, 1266, 1267, 1268, 1269, 1270, 1271, 1272
1273, 1274, 1275, 1276, 1277, 1278, 1279, 1280, 1281, 1282, 1283, 1284
1285, 1286, 1287, 1288, 1289, 1290, 1291, 1292, 1293, 1294, 1295, 1296
1297, 1298, 1299, 1300, 1301, 1302, 1303, 1304, 1305, 1306, 1307, 1308
1309, 1310, 1311, 1312, 1313, 1314, 1315, 1316, 1317, 1318, 1319, 1320
1321, 1322, 1323, 1324, 1325, 1326, 1327, 1328, 1329, 1330, 1331, 1332
1333, 1334, 1335, 1336, 1337, 1338, 1339, 1340, 1341, 1342, 1343, 1344
1345, 1346, 1347, 1348, 1349, 1350, 1351, 1352, 1353, 1354, 1355, 1356
1357, 1358, 1359, 1360, 1361, 1362, 1363, 1364, 1365, 1366, 1367, 1368
1369, 1370, 1371, 1372, 1373, 1374, 1375, 1376, 1377, 1378, 1379, 1380
1381, 1382, 1383, 1384, 1385, 1386, 1387, 1388, 1389, 1390, 1391, 1392
1393, 1394, 1395, 1396, 1397, 1398, 1399, 1400, 1401, 1402, 1403, 1404
1405, 1406, 1407, 1408, 1409, 1410, 1411, 1412, 1413, 1414, 1415, 1416
1417, 1418, 1419, 1420, 1421, 1422, 1423, 1424, 1425, 1426, 1427, 1428
1429, 1430, 1431, 1432, 1433, 1434, 1435, 1436, 1437, 1438, 1439, 1440
1441, 1442, 1443, 1444, 1445, 1446, 1447, 1448, 1449, 1450, 1451, 1452
1453, 1454, 1455, 1456, 1457, 1458, 1459, 1460, 1461, 1462, 1463, 1464
1465, 1466, 1467, 1468, 1469, 1470, 1471, 1472, 1473, 1474, 1475, 1476
1477, 1478, 1479, 1480, 1481, 1482, 1483, 1484, 1485, 1486, 1487, 1488
1489, 1490, 1491, 1492, 1493, 1494, 1495, 1496, 1497, 1498, 1499, 1500
1501, 1502, 1503, 1504, 1505, 1506, 1507, 1508, 1509, 1510, 1511, 1512
1513, 1514, 1515, 1516, 1517, 1518, 1519, 1520, 1521, 1522, 1523, 1524
1525, 1526, 1527, 1528, 1529, 1530, 1531, 1532, 1533, 1534, 1535, 1536
1537, 1538, 1539, 1540, 1541, 1542, 1543, 1544, 1545, 1546, 1547, 1548
1549, 1550, 1551, 1552, 1553, 1554, 1555, 1556, 1557, 1558, 1559, 1560
1561, 1562, 1563, 1564, 1565, 1566, 1567, 1568, 1569, 1570, 1571, 1572
1573, 1574, 1575, 1576, 1577, 1578, 1579, 1580, 1581, 1582, 1583, 1584
1585, 1586, 1587, 1588, 1589, 1590, 1591, 1592, 1593, 1594, 1595, 1596
1597, 1598, 1599, 1600
*ELSET, ELSET=PLY5
1601, 1602, 1603, 1604, 1605, 1606, 1607, 1608, 1609, 1610, 1611, 1612
1613, 1614, 1615, 1616, 1617, 1618, 1619, 1620, 1621, 1622, 1623, 1624
1625, 1626, 1627, 1628, 1629, 1630, 1631, 1632, 1633, 1634, 1635, 1636
1637, 1638, 1639, 1640, 1641, 1642, 1643, 1644, 1645, 1646, 1647, 1648
1649, 1650, 1651, 1652, 1653, 1654, 1655, 1656, 1657, 1658, 1659, 1660
1661, 1662, 1663, 1664, 1665, 1666, 1667, 1668, 1669, 1670, 1671, 1672
1673, 1674, 1675, 1676, 1677, 1678, 1679, 1680, 1681, 1682, 1683, 1684
1685, 1686, 1687, 1688, 1689, 1690, 1691, 1692, 1693, 1694, 1695, 1696
1697, 1698, 1699, 1700, 1701, 1702, 1703, 1704, 1705, 1706, 1707, 1708
1709, 1710, 1711, 1712, 1713, 1714, 1715, 1716, 1717, 1718, 1719, 1720
1721, 1722, 1723, 1724, 1725, 1726, 1727, 1728, 1729, 1730, 1731, 1732
1733, 1734, 1735, 1736, 1737, 1738, 1739, 1740, 1741, 1742, 1743, 1744
1745, 1746, 1747, 1748, 1749, 1750, 1751, 1752, 1753, 1754, 1755, 1756
1757, 1758, 1759, 1760, 1761, 1762, 1763, 1764, 1765, 1766, 1767, 1768
1769, 1770, 1771, 1772, 1773, 1774, 1775, 1776, 1777, 1778, 1779, 1780
1781, 1782, 1783, 1784, 1785, 1786, 1787, 1788, 1789, 1790, 1791, 1792
1793, 1794, 1795, 1796, 1797, 1798, 1799, 1800, 1801, 1802, 1803, 1804
1805, 1806, 1807, 1808, 1809, 1810, 1811, 1812, 1813, 1814, 1815, 1816
1817, 1818, 1819, 1820, 1821, 1822, 1823, 1824, 1825, 1826, 1827, 1828
1829, 1830, 1831, 1832, 1833, 1834, 1835, 1836, 1837, 1838, 1839, 1840
1841, 1842, 1843, 1844, 1845, 1846, 1847, 1848, 1849, 1850, 1851, 1852
1853, 1854, 1855, 1856, 1857, 1858, 1859, 1860, 1861, 1862, 1863, 1864
1865, 1866, 1867, 1868, 1869, 1870, 1871, 1872, 1873, 1874, 1875, 1876
1877, 1878, 1879, 1880, 1881, 1882, 1883, 1884, 1885, 1886, 1887, 1888
1889, 1890, 1891, 1892, 1893, 1894, 1895, 1896, 1897, 1898, 1899, 1900
1901, 1902, 1903, 1904, 1905, 1906, 1907, 1908, 1909, 1910, 1911, 1912
1913, 1914, 1915, 1916, 1917, 1918, 1919, 1920, 1921, 1922, 1923, 1924
1925, 1926, 1927, 1928, 1929, 1930, 1931, 1932, 1933, 1934, 1935, 1936
1937, 1938, 1939, 1940, 1941, 1942, 1943, 1944, 1945, 1946, 1947, 1948
1949, 1950, 1951, 1952, 1953, 1954, 1955, 1956, 1957, 1958, 1959, 1960
1961, 1962, 1963, 1964, 1965, 1966, 1967, 1968, 1969, 1970, 1971, 1972
1973, 1974, 1975, 1976, 1977, 1978, 1979, 1980, 1981, 1982, 1983, 1984
1985, 1986, 1987, 1988, 1989, 1990, 1991, 1992, 1993, 1994, 1995, 1996
1997, 1998, 1999, 2000, 2001, 2002, 2003, 2004, 2005, 2006, 2007, 2008
2009, 2010, 2011, 2012, 2013, 2014, 2015, 2016, 2017, 2018, 2019, 2020
2021, 2022, 2023, 2024, 2025, 2026, 2027, 2028, 2029, 2030, 2031, 2032
2033, 2034, 2035, 2036, 2037, 2038, 2039, 2040, 2041, 2042, 2043, 2044
2045, 2046, 2047, 2048, 2049, 2050, 2051, 2052, 2053, 2054, 2055, 2056
2057, 2058, 2059, 2060, 2061, 2062, 2063, 2064, 2065, 2066, 2067, 2068
2069, 2070, 2071, 2072, 2073, 2074, 2075, 2076, 2077, 2078, 2079, 2080
2081, 2082, 2083, 2084, 2085, 2086, 2087, 2088, 2089, 2090, 2091, 2092
2093, 2094, 2095, 2096, 2097, 2098, 2099, 2100, 2101, 2102, 2103, 2104
2105, 2106, 2107, 2108, 2109, 2110, 2111, 2112, 2113, 2114, 2115, 2116
2117, 2118, 2119, 2120, 2121, 2122, 2123, 2124, 2125, 2126, 2127, 2128
2129, 2130, 2131, 2132, 2133, 2134, 2135, 2136, 2137, 2138, 2139, 2140
2141, 2142, 2143, 2144, 2145, 2146, 2147, 2148, 2149, 2150, 2151, 2152
2153, 2154, 2155, 2156, 2157, 2158, 2159, 2160, 2161, 2162, 2163, 2164
2165, 2166, 2167, 2168, 2169, 2170, 2171, 2172, 2173, 2174, 2175, 2176
2177, 2178, 2179, 2180, 2181, 2182, 2183, 2184, 2185, 2186, 2187, 2188
2189, 2190, 2191, 2192, 2193, 2194, 2195, 2196, 2197, 2198, 2199, 2200
2201, 2202, 2203, 2204, 2205, 2206, 2207, 2208, 2209, 2210, 2211, 2212
2213, 2214, 2215, 2216, 2217, 2218, 2219, 2220, 2221, 2222, 2223, 2224
2225, 2226, 2227, 2228, 2229, 2230, 2231, 2232, 2233, 2234, 2235, 2236
2237, 2238, 2239, 2240, 2241, 2242, 2243, 2244, 2245, 2246, 2247, 2248
2249, 2250, 2251, 2252, 2253, 2254, 2255, 2256, 2257, 2258, 2259, 2260
2261, 2262, 2263, 2264, 2265, 2266, 2267, 2268, 2269, 2270, 2271, 2272
2273, 2274, 2275, 2276, 2277, 2278, 2279, 2280, 2281, 2282, 2283, 2284
2285, 2286, 2287, 2288, 2289, 2290, 2291, 2292, 2293, 2294, 2295, 2296
2297, 2298, 2299, 2300, 2301, 2302, 2303, 2304, 2305, 2306, 2307, 2308
2309, 2310, 2311, 2312, 2313, 2314, 2315, 2316, 2317, 2318, 2319, 2320
2321, 2322, 2323, 2324, 2325, 2326, 2327, 2328, 2329, 2330, 2331, 2332
2333, 2334, 2335, 2336, 2337, 2338, 2339, 2340, 2341, 2342, 2343, 2344
2345, 2346, 2347, 2348, 2349, 2350, 2351, 2352, 2353, 2354, 2355, 2356
2357, 2358, 2359, 2360, 2361, 2362, 2363, 2364, 2365, 2366, 2367, 2368
2369, 2370, 2371, 2372, 2373, 2374, 2375, 2376, 2377, 2378, 2379, 2380
2381, 2382, 2383, 2384, 2385, 2386, 2387, 2388, 2389, 2390, 2391, 2392
2393, 2394, 2395, 2396, 2397, 2398, 2399, 2400, 2401, 2402, 2403, 2404
2405, 2406, 2407, 2408, 2409, 2410, 2411, 2412, 2413, 2414, 2415, 2416
2417, 2418, 2419, 2420, 2421, 2422, 2423, 2424, 2425, 2426, 2427, 2428
2429, 2430, 2431, 2432, 2433, 2434, 2435, 2436, 2437, 2438, 2439, 2440
2441, 2442, 2443, 2444, 2445, 2446, 2447, 2448, 2449, 2450, 2451, 2452
2453, 2454, 2455, 2456, 2457, 2458, 2459, 2460, 2461, 2462, 2463, 2464
2465, 2466, 2467, 2468, 2469, 2470, 2471, 2472, 2473, 2474, 2475, 2476
2477, 2478, 2479, 2480, 2481, 2482, 2483, 2484, 2485, 2486, 2487, 2488
2489, 2490, 2491, 2492, 2493, 2494, 2495, 2496, 2497, 2498, 2499, 2500
2501, 2502, 2503, 2504, 2505, 2506, 2507, 2508, 2509, 2510, 2511, 2512
2513, 2514, 2515, 2516, 2517, 2518, 2519, 2520, 2521, 2522, 2523, 2524
2525, 2526, 2527, 2528, 2529, 2530, 2531, 2532, 2533, 2534, 2535, 2536
2537, 2538, 2539, 2540, 2541, 2542, 2543, 2544, 2545, 2546, 2547, 2548
2549, 2550, 2551, 2552, 2553, 2554, 2555, 2556, 2557, 2558, 2559, 2560
2561, 2562, 2563, 2564, 2565, 2566, 2567, 2568, 2569, 2570, 2571, 2572
2573, 2574, 2575, 2576, 2577, 2578, 2579, 2580, 2581, 2582, 2583, 2584
2585, 2586, 2587, 2588, 2589, 2590, 2591, 2592, 2593, 2594, 2595, 2596
2597, 2598, 2599, 2600, 2601, 2602, 2603, 2604, 2605, 2606, 2607, 2608
2609, 2610, 2611, 2612, 2613, 2614, 2615, 2616, 2617, 2618, 2619, 2620
2621, 2622, 2623, 2624, 2625, 2626, 2627, 2628, 2629, 2630, 2631, 2632
2633, 2634, 2635, 2636, 2637, 2638, 2639, 2640, 2641, 2642, 2643, 2644
2645, 2646, 2647, 2648, 2649, 2650, 2651, 2652, 2653, 2654, 2655, 2656
2657, 2658, 2659, 2660, 2661, 2662, 2663, 2664, 2665, 2666, 2667, 2668
2669, 2670, 2671, 2672, 2673, 2674, 2675, 2676, 2677, 2678, 2679, 2680
2681, 2682, 2683, 2684, 2685, 2686, 2687, 2688, 2689, 2690, 2691, 2692
2693, 2694, 2695, 2696, 2697, 2698, 2699, 2700, 2701, 2702, 2703, 2704
2705, 2706, 2707, 2708, 2709, 2710, 2711, 2712, 2713, 2714, 2715, 2716
2717, 2718, 2719, 2720, 2721, 2722, 2723, 2724, 2725, 2726, 2727, 2728
2729, 2730, 2731, 2732, 2733, 2734, 2735, 2736, 2737, 2738, 2739, 2740
2741, 2742, 2743, 2744, 2745, 2746, 2747, 2748, 2749, 2750, 2751, 2752
2753, 2754, 2755, 2756, 2757, 2758, 2759, 2760, 2761, 2762, 2763, 2764
2765, 2766, 2767, 2768, 2769, 2770, 2771, 2772, 2773, 2774, 2775, 2776
2777, 2778, 2779, 2780, 2781, 2782, 2783, 2784, 2785, 2786, 2787, 2788
2789, 2790, 2791, 2792, 2793, 2794, 2795, 2796, 2797, 2798, 2799, 2800
2801, 2802, 2803, 2804, 2805, 2806, 2807, 2808, 2809, 2810, 2811, 2812
2813, 2814, 2815, 2816, 2817, 2818, 2819, 2820, 2821, 2822, 2823, 2824
2825, 2826, 2827, 2828, 2829, 2830, 2831, 2832, 2833, 2834, 2835, 2836
2837, 2838, 2839, 2840, 2841, 2842, 2843, 2844, 2845, 2846, 2847, 2848
2849, 2850, 2851, 2852, 2853, 2854, 2855, 2856, 2857, 2858, 2859, 2860
2861, 2862, 2863, 2864, 2865, 2866, 2867, 2868, 2869, 2870, 2871, 2872
2873, 2874, 2875, 2876, 2877, 2878, 2879, 2880, 2881, 2882, 2883, 2884
2885, 2886, 2887, 2888, 2889, 2890, 2891, 2892, 2893, 2894, 2895, 2896
2897, 2898, 2899, 2900, 2901, 2902, 2903, 2904, 2905, 2906, 2907, 2908
2909, 2910, 2911, 2912, 2913, 2914, 2915, 2916, 2917, 2918, 2919, 2920
2921, 2922, 2923, 2924, 2925, 2926, 2927, 2928, 2929, 2930, 2931, 2932
2933, 2934, 2935, 2936, 2937, 2938, 2939, 2940, 2941, 2942, 2943, 2944
2945, 2946, 2947, 2948, 2949, 2950, 2951, 2952, 2953, 2954, 2955, 2956
2957, 2958, 2959, 2960, 2961, 2962, 2963, 2964, 2965, 2966, 2967, 2968
2969, 2970, 2971, 2972, 2973, 2974, 2975, 2976, 2977, 2978, 2979, 2980
2981, 2982, 2983, 2984, 2985, 2986, 2987, 2988, 2989, 2990, 2991, 2992
2993, 2994, 2995, 2996, 2997, 2998, 2999, 3000, 3001, 3002, 3003, 3004
3005, 3006, 3007, 3008, 3009, 3010, 3011, 3012, 3013, 3014, 3015, 3016
3017, 3018, 3019, 3020, 3021, 3022, 3023, 3024, 3025, 3026, 3027, 3028
3029, 3030, 3031, 3032, 3033, 3034, 3035, 3036, 3037, 3038, 3039, 3040
3041, 3042, 3043, 3044, 3045, 3046, 3047, 3048, 3049, 3050, 3051, 3052
3053, 3054, 3055, 3056, 3057, 3058, 3059, 3060, 3061, 3062, 3063, 3064
3065, 3066, 3067, 3068, 3069, 3070, 3071, 3072, 3073, 3074, 3075, 3076
3077, 3078, 3079, 3080, 3081, 3082, 3083, 3084, 3085, 3086, 3087, 3088
3089, 3090, 3091, 3092, 3093, 3094, 3095, 3096, 3097, 3098, 3099, 3100
3101, 3102, 3103, 3104, 3105, 3106, 3107, 3108, 3109, 3110, 3111, 3112
3113, 3114, 3115, 3116, 3117, 3118, 3119, 3120, 3121, 3122, 3123, 3124
3125, 3126, 3127, 3128, 3129, 3130, 3131, 3132, 3133, 3134, 3135, 3136
3137, 3138, 3139, 3140, 3141, 3142, 3143, 3144, 3145, 3146, 3147, 3148
3149, 3150, 3151, 3152, 3153, 3154, 3155, 3156, 3157, 3158, 3159, 3160
3161, 3162, 3163, 3164, 3165, 3166, 3167, 3168, 3169, 3170, 3171, 3172
3173, 3174, 3175, 3176, 3177, 3178, 3179, 3180, 3181, 3182, 3183, 3184
3185, 3186, 3187, 3188, 3189, 3190, 3191, 3192, 3193, 3194, 3195, 3196
3197, 3198, 3199, 3200, 3201, 3202, 3203, 3204, 3205, 3206, 3207, 3208
3209, 3210, 3211, 3212, 3213, 3214, 3215, 3216, 3217, 3218, 3219, 3220
3221, 3222, 3223, 3224, 3225, 3226, 3227, 3228, 3229, 3230, 3231, 3232
3233, 3234, 3235, 3236, 3237, 3238, 3239, 3240, 3241, 3242, 3243, 3244
3245, 3246, 3247, 3248, 3249, 3250, 3251, 3252, 3253, 3254, 3255, 3256
3257, 3258, 3259, 3260, 3261, 3262, 3263, 3264, 3265, 3266, 3267, 3268
3269, 3270, 3271, 3272, 3273, 3274, 3275, 3276, 3277, 3278, 3279, 3280
3281, 3282, 3283, 3284, 3285, 3286, 3287, 3288, 3289, 3290, 3291, 3292
3293, 3294, 3295, 3296, 3297, 3298, 3299, 3300, 3301, 3302, 3303, 3304
3305, 3306, 3307, 3308, 3309, 3310, 3311, 3312, 3313, 3314, 3315, 3316
3317, 3318, 3319, 3320, 3321, 3322, 3323, 3324, 3325, 3326, 3327, 3328
3329, 3330, 3331, 3332, 3333, 3334, 3335, 3336, 3337, 3338, 3339, 3340
3341, 3342, 3343, 3344, 3345, 3346, 3347, 3348, 3349, 3350, 3351, 3352
3353, 3354, 3355, 3356, 3357, 3358, 3359, 3360, 3361, 3362, 3363, 3364
3365, 3366, 3367, 3368, 3369, 3370, 3371, 3372, 3373, 3374, 3375, 3376
3377, 3378, 3379, 3380, 3381, 3382, 3383, 3384, 3385, 3386, 3387, 3388
3389, 3390, 3391, 3392, 3393, 3394, 3395, 3396, 3397, 3398, 3399, 3400
3401, 3402, 3403, 3404, 3405, 3406, 3407, 3408, 3409, 3410, 3411, 3412
3413, 3414, 3415, 3416, 3417, 3418, 3419, 3420, 3421, 3422, 3423, 3424
3425, 3426, 3427, 3428, 3429, 3430, 3431, 3432, 3433, 3434, 3435, 3436
3437, 3438, 3439, 3440, 3441, 3442, 3443, 3444, 3445, 3446, 3447, 3448
3449, 3450, 3451, 3452, 3453, 3454, 3455, 3456, 3457, 3458, 3459, 3460
3461, 3462, 3463, 3464, 3465, 3466, 3467, 3468, 3469, 3470, 3471, 3472
3473, 3474, 3475, 3476, 3477, 3478, 3479, 3480, 3481, 3482, 3483, 3484
3485, 3486, 3487, 3488, 3489, 3490, 3491, 3492, 3493, 3494, 3495, 3496
3497, 3498, 3499, 3500, 3501, 3502, 3503, 3504, 3505, 3506, 3507, 3508
3509, 3510, 3511, 3512, 3513, 3514, 3515, 3516, 3517, 3518, 3519, 3520
3521, 3522, 3523, 3524, 3525, 3526, 3527, 3528, 3529, 3530, 3531, 3532
3533, 3534, 3535, 3536, 3537, 3538, 3539, 3540, 3541, 3542, 3543, 3544
3545, 3546, 3547, 3548, 3549, 3550, 3551, 3552, 3553, 3554, 3555, 3556
3557, 3558, 3559, 3560, 3561, 3562, 3563, 3564, 3565, 3566, 3567, 3568
3569, 3570, 3571, 3572, 3573, 3574, 3575, 3576, 3577, 3578, 3579, 3580
3581, 3582, 3583, 3584, 3585, 3586, 3587, 3588, 3589, 3590, 3591, 3592
3593, 3594, 3595, 3596, 3597, 3598, 3599, 3600, 3601, 3602, 3603, 3604
3605, 3606, 3607, 3608, 3609, 3610, 3611, 3612, 3613, 3614, 3615, 3616
3617, 3618, 3619, 3620, 3621, 3622, 3623, 3624, 3625, 3626, 3627, 3628
3629, 3630, 3631, 3632, 3633, 3634, 3635, 3636, 3637, 3638, 3639, 3640
3641, 3642, 3643, 3644, 3645, 3646, 3647, 3648, 3649, 3650, 3651, 3652
3653, 3654, 3655, 3656, 3657, 3658, 3659, 3660, 3661, 3662, 3663, 3664
3665, 3666, 3667, 3668, 3669, 3670, 3671, 3672, 3673, 3674, 3675, 3676
3677, 3678, 3679, 3680, 3681, 3682, 3683, 3684, 3685, 3686, 3687, 3688
3689, 3690, 3691, 3692, 3693, 3694, 3695, 3696, 3697, 3698, 3699, 3700
3701, 3702, 3703, 3704, 3705, 3706, 3707, 3708, 3709, 3710, 3711, 3712
3713, 3714, 3715, 3716, 3717, 3718, 3719, 3720, 3721, 3722, 3723, 3724
3725, 3726, 3727, 3728, 3729, 3730, 3731, 3732, 3733, 3734, 3735, 3736
3737, 3738, 3739, 3740, 3741, 3742, 3743, 3744, 3745, 3746, 3747, 3748
3749, 3750, 3751, 3752, 3753, 3754, 3755, 3756, 3757, 3758, 3759, 3760
3761, 3762, 3763, 3764, 3765, 3766, 3767, 3768, 3769, 3770, 3771, 3772
3773, 3774, 3775, 3776, 3777, 3778, 3779, 3780, 3781, 3782, 3783, 3784
3785, 3786, 3787, 3788, 3789, 3790, 3791, 3792, 3793, 3794, 3795, 3796
3797, 3798, 3799, 3800, 3801, 3802, 3803, 3804, 3805, 3806, 3807, 3808
3809, 3810, 3811, 3812, 3813, 3814, 3815, 3816, 3817, 3818, 3819, 3820
3821, 3822, 3823, 3824, 3825, 3826, 3827, 3828, 3829, 3830, 3831, 3832
3833, 3834, 3835, 3836, 3837, 3838, 3839, 3840, 3841, 3842, 3843, 3844
3845, 3846, 3847, 3848, 3849, 3850, 3851, 3852, 3853, 3854, 3855, 3856
3857, 3858, 3859, 3860, 3861, 3862, 3863, 3864, 3865, 3866, 3867, 3868
3869, 3870, 3871, 3872, 3873, 3874, 3875, 3876, 3877, 3878, 3879, 3880
3881, 3882, 3883, 3884, 3885, 3886, 3887, 3888, 3889, 3890, 3891, 3892
3893, 3894, 3895, 3896, 3897, 3898, 3899, 3900, 3901, 3902, 3903, 3904
3905, 3906, 3907, 3908, 3909, 3910, 3911, 3912, 3913, 3914, 3915, 3916
3917, 3918, 3919, 3920, 3921, 3922, 3923, 3924, 3925, 3926, 3927, 3928
3929, 3930, 3931, 3932, 3933, 3934, 3935, 3936, 3937, 3938, 3939, 3940
3941, 3942, 3943, 3944, 3945, 3946, 3947, 3948, 3949, 3950, 3951, 3952
3953, 3954, 3955, 3956, 3957, 3958, 3959, 3960, 3961, 3962, 3963, 3964
3965, 3966, 3967, 3968, 3969, 3970, 3971, 3972, 3973, 3974, 3975, 3976
3977, 3978, 3979, 3980, 3981, 3982, 3983, 3984, 3985, 3986, 3987, 3988
3989, 3990, 3991, 3992, 3993, 3994, 3995, 3996, 3997, 3998, 3999, 4000
4001, 4002, 4003, 4004, 4005, 4006, 4007, 4008, 4009, 4010, 4011, 4012
4013, 4014, 4015, 4016, 4017, 4018, 4019, 4020, 4021, 4022, 4023, 4024
4025, 4026, 4027, 4028, 4029, 4030, 4031, 4032, 4033, 4034, 4035, 4036
4037, 4038, 4039, 4040, 4041, 4042, 4043, 4044, 4045, 4046, 4047, 4048
4049, 4050, 4051, 4052, 4053, 4054, 4055, 4056, 4057, 4058, 4059, 4060
4061, 4062, 4063, 4064, 4065, 4066, 4067, 4068, 4069, 4070, 4071, 4072
4073, 4074, 4075, 4076, 4077, 4078, 4079, 4080, 4081, 4082, 4083, 4084
4085, 4086, 4087, 4088, 4089, 4090, 4091, 4092, 4093, 4094, 4095, 4096
4097, 4098, 4099, 4100, 4101, 4102, 4103, 4104, 4105, 4106, 4107, 4108
4109, 4110, 4111, 4112, 4113, 4114, 4115, 4116, 4117, 4118, 4119, 4120
4121, 4122, 4123, 4124, 4125, 4126, 4127, 4128, 4129, 4130, 4131, 4132
4133, 4134, 4135, 4136, 4137, 4138, 4139, 4140, 4141, 4142, 4143, 4144
4145, 4146, 4147, 4148, 4149, 4150, 4151, 4152, 4153, 4154, 4155, 4156
4157, 4158, 4159, 4160, 4161, 4162, 4163, 4164, 4165, 4166, 4167, 4168
4169, 4170, 4171, 4172, 4173, 4174, 4175, 4176, 4177, 4178, 4179, 4180
4181, 4182, 4183, 4184, 4185, 4186, 4187, 4188, 4189, 4190, 4191, 4192
4193, 4194, 4195, 4196, 4197, 4198, 4199, 4200, 4201, 4202, 4203, 4204
4205, 4206, 4207, 4208, 4209, 4210, 4211, 4212, 4213, 4214, 4215, 4216
4217, 4218, 4219, 4220, 4221, 4222, 4223, 4224, 4225, 4226, 4227, 4228
4229, 4230, 4231, 4232, 4233, 4234, 4235, 4236, 4237, 4238, 4239, 4240
4241, 4242, 4243, 4244, 4245, 4246, 4247, 4248, 4249, 4250, 4251, 4252
4253, 4254, 4255, 4256, 4257, 4258, 4259, 4260, 4261, 4262, 4263, 4264
4265, 4266, 4267, 4268, 4269, 4270, 4271, 4272, 4273, 4274, 4275, 4276
4277, 4278, 4279, 4280, 4281, 4282, 4283, 4284, 4285, 4286, 4287, 4288
4289, 4290, 4291, 4292, 4293, 4294, 4295, 4296, 4297, 4298, 4299, 4300
4301, 4302, 4303, 4304, 4305, 4306, 4307, 4308, 4309, 4310, 4311, 4312
4313, 4314, 4315, 4316, 4317, 4318, 4319, 4320, 4321, 4322, 4323, 4324
4325, 4326, 4327, 4328, 4329, 4330, 4331, 4332, 4333, 4334, 4335, 4336
4337, 4338, 4339, 4340, 4341, 4342, 4343, 4344, 4345, 4346, 4347, 4348
4349, 4350, 4351, 4352, 4353, 4354, 4355, 4356, 4357, 4358, 4359, 4360
4361, 4362, 4363, 4364, 4365, 4366, 4367, 4368, 4369, 4370, 4371, 4372
4373, 4374, 4375, 4376, 4377, 4378, 4379, 4380, 4381, 4382, 4383, 4384
4385, 4386, 4387, 4388, 4389, 4390, 4391, 4392, 4393, 4394, 4395, 4396
4397, 4398, 4399, 4400, 4401, 4402, 4403, 4404, 4405, 4406, 4407, 4408
4409, 4410, 4411, 4412, 4413, 4414, 4415, 4416, 4417, 4418, 4419, 4420
4421, 4422, 4423, 4424, 4425, 4426, 4427, 4428, 4429, 4430, 4431, 4432
4433, 4434, 4435, 4436, 4437, 4438, 4439, 4440, 4441, 4442, 4443, 4444
4445, 4446, 4447, 4448, 4449, 4450, 4451, 4452, 4453, 4454, 4455, 4456
4457, 4458, 4459, 4460, 4461, 4462, 4463, 4464, 4465, 4466, 4467, 4468
4469, 4470, 4471, 4472, 4473, 4474, 4475, 4476, 4477, 4478, 4479, 4480
4481, 4482, 4483, 4484, 4485, 4486, 4487, 4488, 4489, 4490, 4491, 4492
4493, 4494, 4495, 4496, 4497, 4498, 4499, 4500, 4501, 4502, 4503, 4504
4505, 4506, 4507, 4508, 4509, 4510, 4511, 4512, 4513, 4514, 4515, 4516
4517, 4518, 4519, 4520, 4521, 4522, 4523, 4524, 4525, 4526, 4527, 4528
4529, 4530, 4531, 4532, 4533, 4534, 4535, 4536, 4537, 4538, 4539, 4540
4541, 4542, 4543, 4544, 4545, 4546, 4547, 4548, 4549, 4550, 4551, 4552
4553, 4554, 4555, 4556, 4557, 4558, 4559, 4560, 4561, 4562, 4563, 4564
4565, 4566, 4567, 4568, 4569, 4570, 4571, 4572, 4573, 4574, 4575, 4576
4577, 4578, 4579, 4580, 4581, 4582, 4583, 4584, 4585, 4586, 4587, 4588
4589, 4590, 4591, 4592, 4593, 4594, 4595, 4596, 4597, 4598, 4599, 4600
4601, 4602, 4603, 4604, 4605, 4606, 4607, 4608, 4609, 4610, 4611, 4612
4613, 4614, 4615, 4616, 4617, 4618, 4619, 4620, 4621, 4622, 4623, 4624
4625, 4626, 4627, 4628, 4629, 4630, 4631, 4632, 4633, 4634, 4635, 4636
4637, 4638, 4639, 4640, 4641, 4642, 4643, 4644, 4645, 4646, 4647, 4648
4649, 4650, 4651, 4652, 4653, 4654, 4655, 4656, 4657, 4658, 4659, 4660
4661, 4662, 4663, 4664, 4665, 4666, 4667, 4668, 4669, 4670, 4671, 4672
4673, 4674, 4675, 4676, 4677, 4678, 4679, 4680, 4681, 4682, 4683, 4684
4685, 4686, 4687, 4688, 4689, 4690, 4691, 4692, 4693, 4694, 4695, 4696
4697, 4698, 4699, 4700, 4701, 4702, 4703, 4704, 4705, 4706, 4707, 4708
4709, 4710, 4711, 4712, 4713, 4714, 4715, 4716, 4717, 4718, 4719, 4720
4721, 4722, 4723, 4724, 4725, 4726, 4727, 4728, 4729, 4730, 4731, 4732
4733, 4734, 4735, 4736, 4737, 4738, 4739, 4740, 4741, 4742, 4743, 4744
4745, 4746, 4747, 4748, 4749, 4750, 4751, 4752, 4753, 4754, 4755, 4756
4757, 4758, 4759, 4760, 4761, 4762, 4763, 4764, 4765, 4766, 4767, 4768
4769, 4770, 4771, 4772, 4773, 4774, 4775, 4776, 4777, 4778, 4779, 4780
4781, 4782, 4783, 4784, 4785, 4786, 4787, 4788, 4789, 4790, 4791, 4792
4793, 4794, 4795, 4796, 4797, 4798, 4799, 4800
*ELSET, ELSET=PLY6
4801, 4802, 4803, 4804, 4805, 4806, 4807, 4808, 4809, 4810, 4811, 4812
4813, 4814, 4815, 4816, 4817, 4818, 4819, 4820, 4821, 4822, 4823, 4824
4825, 4826, 4827, 4828, 4829, 4830, 4831, 4832, 4833, 4834, 4835, 4836
4837, 4838, 4839, 4840, 4841, 4842, 4843, 4844, 4845, 4846, 4847, 4848
4849, 4850, 4851, 4852, 4853, 4854, 4855, 4856, 4857, 4858, 4859, 4860
4861, 4862, 4863, 4864, 4865, 4866, 4867, 4868, 4869, 4870, 4871, 4872
4873, 4874, 4875, 4876, 4877, 4878, 4879, 4880, 4881, 4882, 4883, 4884
4885, 4886, 4887, 4888, 4889, 4890, 4891, 4892, 4893, 4894, 4895, 4896
4897, 4898, 4899, 4900, 4901, 4902, 4903, 4904, 4905, 4906, 4907, 4908
4909, 4910, 4911, 4912, 4913, 4914, 4915, 4916, 4917, 4918, 4919, 4920
4921, 4922, 4923, 4924, 4925, 4926, 4927, 4928, 4929, 4930, 4931, 4932
4933, 4934, 4935, 4936, 4937, 4938, 4939, 4940, 4941, 4942, 4943, 4944
4945, 4946, 4947, 4948, 4949, 4950, 4951, 4952, 4953, 4954, 4955, 4956
4957, 4958, 4959, 4960, 4961, 4962, 4963, 4964, 4965, 4966, 4967, 4968
4969, 4970, 4971, 4972, 4973, 4974, 4975, 4976, 4977, 4978, 4979, 4980
4981, 4982, 4983, 4984, 4985, 4986, 4987, 4988, 4989, 4990, 4991, 4992
4993, 4994, 4995, 4996, 4997, 4998, 4999, 5000, 5001, 5002, 5003, 5004
5005, 5006, 5007, 5008, 5009, 5010, 5011, 5012, 5013, 5014, 5015, 5016
5017, 5018, 5019, 5020, 5021, 5022, 5023, 5024, 5025, 5026, 5027, 5028
5029, 5030, 5031, 5032, 5033, 5034, 5035, 5036, 5037, 5038, 5039, 5040
5041, 5042, 5043, 5044, 5045, 5046, 5047, 5048, 5049, 5050, 5051, 5052
5053, 5054, 5055, 5056, 5057, 5058, 5059, 5060, 5061, 5062, 5063, 5064
5065, 5066, 5067, 5068, 5069, 5070, 5071, 5072, 5073, 5074, 5075, 5076
5077, 5078, 5079, 5080, 5081, 5082, 5083, 5084, 5085, 5086, 5087, 5088
5089, 5090, 5091, 5092, 5093, 5094, 5095, 5096, 5097, 5098, 5099, 5100
5101, 5102, 5103, 5104, 5105, 5106, 5107, 5108, 5109, 5110, 5111, 5112
5113, 5114, 5115, 5116, 5117, 5118, 5119, 5120, 5121, 5122, 5123, 5124
5125, 5126, 5127, 5128, 5129, 5130, 5131, 5132, 5133, 5134, 5135, 5136
5137, 5138, 5139, 5140, 5141, 5142, 5143, 5144, 5145, 5146, 5147, 5148
5149, 5150, 5151, 5152, 5153, 5154, 5155, 5156, 5157, 5158, 5159, 5160
5161, 5162, 5163, 5164, 5165, 5166, 5167, 5168, 5169, 5170, 5171, 5172
5173, 5174, 5175, 5176, 5177, 5178, 5179, 5180, 5181, 5182, 5183, 5184
5185, 5186, 5187, 5188, 5189, 5190, 5191, 5192, 5193, 5194, 5195, 5196
5197, 5198, 5199, 5200
*ELSET, ELSET=PLY7
5201, 5202, 5203, 5204, 5205, 5206, 5207, 5208, 5209, 5210, 5211, 5212
5213, 5214, 5215, 5216, 5217, 5218, 5219, 5220, 5221, 5222, 5223, 5224
5225, 5226, 5227, 5228, 5229, 5230, 5231, 5232, 5233, 5234, 5235, 5236
5237, 5238, 5239, 5240, 5241, 5242, 5243, 5244, 5245, 5246, 5247, 5248
5249, 5250, 5251, 5252, 5253, 5254, 5255, 5256, 5257, 5258, 5259, 5260
5261, 5262, 5263, 5264, 5265, 5266, 5267, 5268, 5269, 5270, 5271, 5272
5273, 5274, 5275, 5276, 5277, 5278, 5279, 5280, 5281, 5282, 5283, 5284
5285, 5286, 5287, 5288, 5289, 5290, 5291, 5292, 5293, 5294, 5295, 5296
5297, 5298, 5299, 5300, 5301, 5302, 5303, 5304, 5305, 5306, 5307, 5308
5309, 5310, 5311, 5312, 5313, 5314, 5315, 5316, 5317, 5318, 5319, 5320
5321, 5322, 5323, 5324, 5325, 5326, 5327, 5328, 5329, 5330, 5331, 5332
5333, 5334, 5335, 5336, 5337, 5338, 5339, 5340, 5341, 5342, 5343, 5344
5345, 5346, 5347, 5348, 5349, 5350, 5351, 5352, 5353, 5354, 5355, 5356
5357, 5358, 5359, 5360, 5361, 5362, 5363, 5364, 5365, 5366, 5367, 5368
5369, 5370, 5371, 5372, 5373, 5374, 5375, 5376, 5377, 5378, 5379, 5380
5381, 5382, 5383, 5384, 5385, 5386, 5387, 5388, 5389, 5390, 5391, 5392
5393, 5394, 5395, 5396, 5397, 5398, 5399, 5400, 5401, 5402, 5403, 5404
5405, 5406, 5407, 5408, 5409, 5410, 5411, 5412, 5413, 5414, 5415, 5416
5417, 5418, 5419, 5420, 5421, 5422, 5423, 5424, 5425, 5426, 5427, 5428
5429, 5430, 5431, 5432, 5433, 5434, 5435, 5436, 5437, 5438, 5439, 5440
5441, 5442, 5443, 5444, 5445, 5446, 5447, 5448, 5449, 5450, 5451, 5452
5453, 5454, 5455, 5456, 5457, 5458, 5459, 5460, 5461, 5462, 5463, 5464
5465, 5466, 5467, 5468, 5469, 5470, 5471, 5472, 5473, 5474, 5475, 5476
5477, 5478, 5479, 5480, 5481, 5482, 5483, 5484, 5485, 5486, 5487, 5488
5489, 5490, 5491, 5492, 5493, 5494, 5495, 5496, 5497, 5498, 5499, 5500
5501, 5502, 5503, 5504, 5505, 5506, 5507, 5508, 5509, 5510, 5511, 5512
5513, 5514, 5515, 5516, 5517, 5518, 5519, 5520, 5521, 5522, 5523, 5524
5525, 5526, 5527, 5528, 5529, 5530, 5531, 5532, 5533, 5534, 5535, 5536
5537, 5538, 5539, 5540, 5541, 5542, 5543, 5544, 5545, 5546, 5547, 5548
5549, 5550, 5551, 5552, 5553, 5554, 5555, 5556, 5557, 5558, 5559, 5560
5561, 5562, 5563, 5564, 5565, 5566, 5567, 5568, 5569, 5570, 5571, 5572
5573, 5574, 5575, 5576, 5577, 5578, 5579, 5580, 5581, 5582, 5583, 5584
5585, 5586, 5587, 5588, 5589, 5590, 5591, 5592, 5593, 5594, 5595, 5596
5597, 5598, 5599, 5600
*ELSET, ELSET=PLY8
5601, 5602, 5603, 5604, 5605, 5606, 5607, 5608, 5609, 5610, 5611, 5612
5613, 5614, 5615, 5616, 5617, 5618, 5619, 5620, 5621, 5622, 5623, 5624
5625, 5626, 5627, 5628, 5629, 5630, 5631, 5632, 5633, 5634, 5635, 5636
5637, 5638, 5639, 5640, 5641, 5642, 5643, 5644, 5645, 5646, 5647, 5648
5649, 5650, 5651, 5652, 5653, 5654, 5655, 5656, 5657, 5658, 5659, 5660
5661, 5662, 5663, 5664, 5665, 5666, 5667, 5668, 5669, 5670, 5671, 5672
5673, 5674, 5675, 5676, 5677, 5678, 5679, 5680, 5681, 5682, 5683, 5684
5685, 5686, 5687, 5688, 5689, 5690, 5691, 5692, 5693, 5694, 5695, 5696
5697, 5698, 5699, 5700, 5701, 5702, 5703, 5704, 5705, 5706, 5707, 5708
5709, 5710, 5711, 5712, 5713, 5714, 5715, 5716, 5717, 5718, 5719, 5720
5721, 5722, 5723, 5724, 5725, 5726, 5727, 5728, 5729, 5730, 5731, 5732
5733, 5734, 5735, 5736, 5737, 5738, 5739, 5740, 5741, 5742, 5743, 5744
5745, 5746, 5747, 5748, 5749, 5750, 5751, 5752, 5753, 5754, 5755, 5756
5757, 5758, 5759, 5760, 5761, 5762, 5763, 5764, 5765, 5766, 5767, 5768
5769, 5770, 5771, 5772, 5773, 5774, 5775, 5776, 5777, 5778, 5779, 5780
5781, 5782, 5783, 5784, 5785, 5786, 5787, 5788, 5789, 5790, 5791, 5792
5793, 5794, 5795, 5796, 5797, 5798, 5799, 5800, 5801, 5802, 5803, 5804
5805, 5806, 5807, 5808, 5809, 5810, 5811, 5812, 5813, 5814, 5815, 5816
5817, 5818, 5819, 5820, 5821, 5822, 5823, 5824, 5825, 5826, 5827, 5828
5829, 5830, 5831, 5832, 5833, 5834, 5835, 5836, 5837, 5838, 5839, 5840
5841, 5842, 5843, 5844, 5845, 5846, 5847, 5848, 5849, 5850, 5851, 5852
5853, 5854, 5855, 5856, 5857, 5858, 5859, 5860, 5861, 5862, 5863, 5864
5865, 5866, 5867, 5868, 5869, 5870, 5871, 5872, 5873, 5874, 5875, 5876
5877, 5878, 5879, 5880, 5881, 5882, 5883, 5884, 5885, 5886, 5887, 5888
5889, 5890, 5891, 5892, 5893, 5894, 5895, 5896, 5897, 5898, 5899, 5900
5901, 5902, 5903, 5904, 5905, 5906, 5907, 5908, 5909, 5910, 5911, 5912
5913, 5914, 5915, 5916, 5917, 5918, 5919, 5920, 5921, 5922, 5923, 5924
5925, 5926, 5927, 5928, 5929, 5930, 5931, 5932, 5933, 5934, 5935, 5936
5937, 5938, 5939, 5940, 5941, 5942, 5943, 5944, 5945, 5946, 5947, 5948
5949, 5950, 5951, 5952, 5953, 5954, 5955, 5956, 5957, 5958, 5959, 5960
5961, 5962, 5963, 5964, 5965, 5966, 5967, 5968, 5969, 5970, 5971, 5972
5973, 5974, 5975, 5976, 5977, 5978, 5979, 5980, 5981, 5982, 5983, 5984
5985, 5986, 5987, 5988, 5989, 5990, 5991, 5992, 5993, 5994, 5995, 5996
5997, 5998, 5999, 6000
*ELSET, ELSET=PLY9
6001, 6002, 6003, 6004, 6005, 6006, 6007, 6008, 6009, 6010, 6011, 6012
6013, 6014, 6015, 6016, 6017, 6018, 6019, 6020, 6021, 6022, 6023, 6024
6025, 6026, 6027, 6028, 6029, 6030, 6031, 6032, 6033, 6034, 6035, 6036
6037, 6038, 6039, 6040, 6041, 6042, 6043, 6044, 6045, 6046, 6047, 6048
6049, 6050, 6051, 6052, 6053, 6054, 6055, 6056, 6057, 6058, 6059, 6060
6061, 6062, 6063, 6064, 6065, 6066, 6067, 6068, 6069, 6070, 6071, 6072
6073, 6074, 6075, 6076, 6077, 6078, 6079, 6080, 6081, 6082, 6083, 6084
6085, 6086, 6087, 6088, 6089, 6090, 6091, 6092, 6093, 6094, 6095, 6096
6097, 6098, 6099, 6100, 6101, 6102, 6103, 6104, 6105, 6106, 6107, 6108
6109, 6110, 6111, 6112, 6113, 6114, 6115, 6116, 6117, 6118, 6119, 6120
6121, 6122, 6123, 6124, 6125, 6126, 6127, 6128, 6129, 6130, 6131, 6132
6133, 6134, 6135, 6136, 6137, 6138, 6139, 6140, 6141, 6142, 6143, 6144
6145, 6146, 6147, 6148, 6149, 6150, 6151, 6152, 6153, 6154, 6155, 6156
6157, 6158, 6159, 6160, 6161, 6162, 6163, 6164, 6165, 6166, 6167, 6168
6169, 6170, 6171, 6172, 6173, 6174, 6175, 6176, 6177, 6178, 6179, 6180
6181, 6182, 6183, 6184, 6185, 6186, 6187, 6188, 6189, 6190, 6191, 6192
6193, 6194, 6195, 6196, 6197, 6198, 6199, 6200, 6201, 6202, 6203, 6204
6205, 6206, 6207, 6208, 6209, 6210, 6211, 6212, 6213, 6214, 6215, 6216
6217, 6218, 6219, 6220, 6221, 6222, 6223, 6224, 6225, 6226, 6227, 6228
6229, 6230, 6231, 6232, 6233, 6234, 6235, 6236, 6237, 6238, 6239, 6240
6241, 6242, 6243, 6244, 6245, 6246, 6247, 6248, 6249, 6250, 6251, 6252
6253, 6254, 6255, 6256, 6257, 6258, 6259, 6260, 6261, 6262, 6263, 6264
6265, 6266, 6267, 6268, 6269, 6270, 6271, 6272, 6273, 6274, 6275, 6276
6277, 6278, 6279, 6280, 6281, 6282, 6283, 6284, 6285, 6286, 6287, 6288
6289, 6290, 6291, 6292, 6293, 6294, 6295, 6296, 6297, 6298, 6299, 6300
6301, 6302, 6303, 6304, 6305, 6306, 6307, 6308, 6309, 6310, 6311, 6312
6313, 6314, 6315, 6316, 6317, 6318, 6319, 6320, 6321, 6322, 6323, 6324
6325, 6326, 6327, 6328, 6329, 6330, 6331, 6332, 6333, 6334, 6335, 6336
6337, 6338, 6339, 6340, 6341, 6342, 6343, 6344, 6345, 6346, 6347, 6348
6349, 6350, 6351, 6352, 6353, 6354, 6355, 6356, 6357, 6358, 6359, 6360
6361, 6362, 6363, 6364, 6365, 6366, 6367, 6368, 6369, 6370, 6371, 6372
6373, 6374, 6375, 6376, 6377, 6378, 6379, 6380, 6381, 6382, 6383, 6384
6385, 6386, 6387, 6388, 6389, 6390, 6391, 6392, 6393, 6394, 6395, 6396
6397, 6398, 6399, 6400
*NSET, NSET=NCEN3D
3749
*ELSET, ELSET=COLC
190, 191, 210, 211, 590, 591, 610, 611, 990, 991, 1010, 1011
1390, 1391, 1410, 1411, 1790, 1791, 1810, 1811, 2190, 2191, 2210, 2211
2590, 2591, 2610, 2611, 2990, 2991, 3010, 3011, 3390, 3391, 3410, 3411
3790, 3791, 3810, 3811, 4190, 4191, 4210, 4211, 4590, 4591, 4610, 4611
4990, 4991, 5010, 5011, 5390, 5391, 5410, 5411, 5790, 5791, 5810, 5811
6190, 6191, 6210, 6211
*ELSET, ELSET=COLX
181, 201, 581, 601, 981, 1001, 1381, 1401, 1781, 1801, 2181, 2201
2581, 2601, 2981, 3001, 3381, 3401, 3781, 3801, 4181, 4201, 4581, 4601
4981, 5001, 5381, 5401, 5781, 5801, 6181, 6201
*ELSET, ELSET=COLY
10, 11, 410, 411, 810, 811, 1210, 1211, 1610, 1611, 2010, 2011
2410, 2411, 2810, 2811, 3210, 3211, 3610, 3611, 4010, 4011, 4410, 4411
4810, 4811, 5210, 5211, 5610, 5611, 6010, 6011
*NSET, NSET=NX0F
1, 22, 43, 64, 85, 106, 127, 148, 169, 190, 211, 232
253, 274, 295, 316, 337, 358, 379, 400, 421, 442, 463, 484
505, 526, 547, 568, 589, 610, 631, 652, 673, 694, 715, 736
757, 778, 799, 820, 841, 862, 883, 904, 925, 946, 967, 988
1009, 1030, 1051, 1072, 1093, 1114, 1135, 1156, 1177, 1198, 1219, 1240
1261, 1282, 1303, 1324, 1345, 1366, 1387, 1408, 1429, 1450, 1471, 1492
1513, 1534, 1555, 1576, 1597, 1618, 1639, 1660, 1681, 1702, 1723, 1744
1765, 1786, 1807, 1828, 1849, 1870, 1891, 1912, 1933, 1954, 1975, 1996
2017, 2038, 2059, 2080, 2101, 2122, 2143, 2164, 2185, 2206, 2227, 2248
2269, 2290, 2311, 2332, 2353, 2374, 2395, 2416, 2437, 2458, 2479, 2500
2521, 2542, 2563, 2584, 2605, 2626, 2647, 2668, 2689, 2710, 2731, 2752
2773, 2794, 2815, 2836, 2857, 2878, 2899, 2920, 2941, 2962, 2983, 3004
3025, 3046, 3067, 3088, 3109, 3130, 3151, 3172, 3193, 3214, 3235, 3256
3277, 3298, 3319, 3340, 3361, 3382, 3403, 3424, 3445, 3466, 3487, 3508
3529, 3550, 3571, 3592, 3613, 3634, 3655, 3676, 3697, 3718, 3739, 3760
3781, 3802, 3823, 3844, 3865, 3886, 3907, 3928, 3949, 3970, 3991, 4012
4033, 4054, 4075, 4096, 4117, 4138, 4159, 4180, 4201, 4222, 4243, 4264
4285, 4306, 4327, 4348, 4369, 4390, 4411, 4432, 4453, 4474, 4495, 4516
4537, 4558, 4579, 4600, 4621, 4642, 4663, 4684, 4705, 4726, 4747, 4768
4789, 4810, 4831, 4852, 4873, 4894, 4915, 4936, 4957, 4978, 4999, 5020
5041, 5062, 5083, 5104, 5125, 5146, 5167, 5188, 5209, 5230, 5251, 5272
5293, 5314, 5335, 5356, 5377, 5398, 5419, 5440, 5461, 5482, 5503, 5524
5545, 5566, 5587, 5608, 5629, 5650, 5671, 5692, 5713, 5734, 5755, 5776
5797, 5818, 5839, 5860, 5881, 5902, 5923, 5944, 5965, 5986, 6007, 6028
6049, 6070, 6091, 6112, 6133, 6154, 6175, 6196, 6217, 6238, 6259, 6280
6301, 6322, 6343, 6364, 6385, 6406, 6427, 6448, 6469, 6490, 6511, 6532
6553, 6574, 6595, 6616, 6637, 6658, 6679, 6700, 6721, 6742, 6763, 6784
6805, 6826, 6847, 6868, 6889, 6910, 6931, 6952, 6973, 6994, 7015, 7036
7057, 7078, 7099, 7120, 7141, 7162, 7183, 7204, 7225, 7246, 7267, 7288
7309, 7330, 7351, 7372, 7393, 7414, 7435, 7456, 7477
*NSET, NSET=NXAF
21, 42, 63, 84, 105, 126, 147, 168, 189, 210, 231, 252
273, 294, 315, 336, 357, 378, 399, 420, 441, 462, 483, 504
525, 546, 567, 588, 609, 630, 651, 672, 693, 714, 735, 756
777, 798, 819, 840, 861, 882, 903, 924, 945, 966, 987, 1008
1029, 1050, 1071, 1092, 1113, 1134, 1155, 1176, 1197, 1218, 1239, 1260
1281, 1302, 1323, 1344, 1365, 1386, 1407, 1428, 1449, 1470, 1491, 1512
1533, 1554, 1575, 1596, 1617, 1638, 1659, 1680, 1701, 1722, 1743, 1764
1785, 1806, 1827, 1848, 1869, 1890, 1911, 1932, 1953, 1974, 1995, 2016
2037, 2058, 2079, 2100, 2121, 2142, 2163, 2184, 2205, 2226, 2247, 2268
2289, 2310, 2331, 2352, 2373, 2394, 2415, 2436, 2457, 2478, 2499, 2520
2541, 2562, 2583, 2604, 2625, 2646, 2667, 2688, 2709, 2730, 2751, 2772
2793, 2814, 2835, 2856, 2877, 2898, 2919, 2940, 2961, 2982, 3003, 3024
3045, 3066, 3087, 3108, 3129, 3150, 3171, 3192, 3213, 3234, 3255, 3276
3297, 3318, 3339, 3360, 3381, 3402, 3423, 3444, 3465, 3486, 3507, 3528
3549, 3570, 3591, 3612, 3633, 3654, 3675, 3696, 3717, 3738, 3759, 3780
3801, 3822, 3843, 3864, 3885, 3906, 3927, 3948, 3969, 3990, 4011, 4032
4053, 4074, 4095, 4116, 4137, 4158, 4179, 4200, 4221, 4242, 4263, 4284
4305, 4326, 4347, 4368, 4389, 4410, 4431, 4452, 4473, 4494, 4515, 4536
4557, 4578, 4599, 4620, 4641, 4662, 4683, 4704, 4725, 4746, 4767, 4788
4809, 4830, 4851, 4872, 4893, 4914, 4935, 4956, 4977, 4998, 5019, 5040
5061, 5082, 5103, 5124, 5145, 5166, 5187, 5208, 5229, 5250, 5271, 5292
5313, 5334, 5355, 5376, 5397, 5418, 5439, 5460, 5481, 5502, 5523, 5544
5565, 5586, 5607, 5628, 5649, 5670, 5691, 5712, 5733, 5754, 5775, 5796
5817, 5838, 5859, 5880, 5901, 5922, 5943, 5964, 5985, 6006, 6027, 6048
6069, 6090, 6111, 6132, 6153, 6174, 6195, 6216, 6237, 6258, 6279, 6300
6321, 6342, 6363, 6384, 6405, 6426, 6447, 6468, 6489, 6510, 6531, 6552
6573, 6594, 6615, 6636, 6657, 6678, 6699, 6720, 6741, 6762, 6783, 6804
6825, 6846, 6867, 6888, 6909, 6930, 6951, 6972, 6993, 7014, 7035, 7056
7077, 7098, 7119, 7140, 7161, 7182, 7203, 7224, 7245, 7266, 7287, 7308
7329, 7350, 7371, 7392, 7413, 7434, 7455, 7476, 7497
*NSET, NSET=NY0F
1, 2, 3, 4, 5, 6, 7, 8, 9, 10, 11, 12
13, 14, 15, 16, 17, 18, 19, 20, 21, 442, 443, 444
445, 446, 447, 448, 449, 450, 451, 452, 453, 454, 455, 456
457, 458, 459, 460, 461, 462, 883, 884, 885, 886, 887, 888
889, 890, 891, 892, 893, 894, 895, 896, 897, 898, 899, 900
901, 902, 903, 1324, 1325, 1326, 1327, 1328, 1329, 1330, 1331, 1332
1333, 1334, 1335, 1336, 1337, 1338, 1339, 1340, 1341, 1342, 1343, 1344
1765, 1766, 1767, 1768, 1769, 1770, 1771, 1772, 1773, 1774, 1775, 1776
1777, 1778, 1779, 1780, 1781, 1782, 1783, 1784, 1785, 2206, 2207, 2208
2209, 2210, 2211, 2212, 2213, 2214, 2215, 2216, 2217, 2218, 2219, 2220
2221, 2222, 2223, 2224, 2225, 2226, 2647, 2648, 2649, 2650, 2651, 2652
2653, 2654, 2655, 2656, 2657, 2658, 2659, 2660, 2661, 2662, 2663, 2664
2665, 2666, 2667, 3088, 3089, 3090, 3091, 3092, 3093, 3094, 3095, 3096
3097, 3098, 3099, 3100, 3101, 3102, 3103, 3104, 3105, 3106, 3107, 3108
3529, 3530, 3531, 3532, 3533, 3534, 3535, 3536, 3537, 3538, 3539, 3540
3541, 3542, 3543, 3544, 3545, 3546, 3547, 3548, 3549, 3970, 3971, 3972
3973, 3974, 3975, 3976, 3977, 3978, 3979, 3980, 3981, 3982, 3983, 3984
3985, 3986, 3987, 3988, 3989, 3990, 4411, 4412, 4413, 4414, 4415, 4416
4417, 4418, 4419, 4420, 4421, 4422, 4423, 4424, 4425, 4426, 4427, 4428
4429, 4430, 4431, 4852, 4853, 4854, 4855, 4856, 4857, 4858, 4859, 4860
4861, 4862, 4863, 4864, 4865, 4866, 4867, 4868, 4869, 4870, 4871, 4872
5293, 5294, 5295, 5296, 5297, 5298, 5299, 5300, 5301, 5302, 5303, 5304
5305, 5306, 5307, 5308, 5309, 5310, 5311, 5312, 5313, 5734, 5735, 5736
5737, 5738, 5739, 5740, 5741, 5742, 5743, 5744, 5745, 5746, 5747, 5748
5749, 5750, 5751, 5752, 5753, 5754, 6175, 6176, 6177, 6178, 6179, 6180
6181, 6182, 6183, 6184, 6185, 6186, 6187, 6188, 6189, 6190, 6191, 6192
6193, 6194, 6195, 6616, 6617, 6618, 6619, 6620, 6621, 6622, 6623, 6624
6625, 6626, 6627, 6628, 6629, 6630, 6631, 6632, 6633, 6634, 6635, 6636
7057, 7058, 7059, 7060, 7061, 7062, 7063, 7064, 7065, 7066, 7067, 7068
7069, 7070, 7071, 7072, 7073, 7074, 7075, 7076, 7077
*NSET, NSET=NYBF
421, 422, 423, 424, 425, 426, 427, 428, 429, 430, 431, 432
433, 434, 435, 436, 437, 438, 439, 440, 441, 862, 863, 864
865, 866, 867, 868, 869, 870, 871, 872, 873, 874, 875, 876
877, 878, 879, 880, 881, 882, 1303, 1304, 1305, 1306, 1307, 1308
1309, 1310, 1311, 1312, 1313, 1314, 1315, 1316, 1317, 1318, 1319, 1320
1321, 1322, 1323, 1744, 1745, 1746, 1747, 1748, 1749, 1750, 1751, 1752
1753, 1754, 1755, 1756, 1757, 1758, 1759, 1760, 1761, 1762, 1763, 1764
2185, 2186, 2187, 2188, 2189, 2190, 2191, 2192, 2193, 2194, 2195, 2196
2197, 2198, 2199, 2200, 2201, 2202, 2203, 2204, 2205, 2626, 2627, 2628
2629, 2630, 2631, 2632, 2633, 2634, 2635, 2636, 2637, 2638, 2639, 2640
2641, 2642, 2643, 2644, 2645, 2646, 3067, 3068, 3069, 3070, 3071, 3072
3073, 3074, 3075, 3076, 3077, 3078, 3079, 3080, 3081, 3082, 3083, 3084
3085, 3086, 3087, 3508, 3509, 3510, 3511, 3512, 3513, 3514, 3515, 3516
3517, 3518, 3519, 3520, 3521, 3522, 3523, 3524, 3525, 3526, 3527, 3528
3949, 3950, 3951, 3952, 3953, 3954, 3955, 3956, 3957, 3958, 3959, 3960
3961, 3962, 3963, 3964, 3965, 3966, 3967, 3968, 3969, 4390, 4391, 4392
4393, 4394, 4395, 4396, 4397, 4398, 4399, 4400, 4401, 4402, 4403, 4404
4405, 4406, 4407, 4408, 4409, 4410, 4831, 4832, 4833, 4834, 4835, 4836
4837, 4838, 4839, 4840, 4841, 4842, 4843, 4844, 4845, 4846, 4847, 4848
4849, 4850, 4851, 5272, 5273, 5274, 5275, 5276, 5277, 5278, 5279, 5280
5281, 5282, 5283, 5284, 5285, 5286, 5287, 5288, 5289, 5290, 5291, 5292
5713, 5714, 5715, 5716, 5717, 5718, 5719, 5720, 5721, 5722, 5723, 5724
5725, 5726, 5727, 5728, 5729, 5730, 5731, 5732, 5733, 6154, 6155, 6156
6157, 6158, 6159, 6160, 6161, 6162, 6163, 6164, 6165, 6166, 6167, 6168
6169, 6170, 6171, 6172, 6173, 6174, 6595, 6596, 6597, 6598, 6599, 6600
6601, 6602, 6603, 6604, 6605, 6606, 6607, 6608, 6609, 6610, 6611, 6612
6613, 6614, 6615, 7036, 7037, 7038, 7039, 7040, 7041, 7042, 7043, 7044
7045, 7046, 7047, 7048, 7049, 7050, 7051, 7052, 7053, 7054, 7055, 7056
7477, 7478, 7479, 7480, 7481, 7482, 7483, 7484, 7485, 7486, 7487, 7488
7489, 7490, 7491, 7492, 7493, 7494, 7495, 7496, 7497
**
*MATERIAL, NAME=GE
*ELASTIC, TYPE=ENGINEERING CONSTANTS
1.280000e+11, 1.100000e+10, 1.100000e+10, 0.25, 0.25, 0.25, 4.480000e+09, 4.480000e+09,
1.530000e+09
*DENSITY
1500,
*MATERIAL, NAME=HEREX
*ELASTIC, TYPE=ENGINEERING CONSTANTS
1.036300e+08, 1.036300e+08, 1.036300e+08, 0.32, 0.32, 0.32, 5.000000e+07, 5.000000e+07,
5.000000e+07
*DENSITY
130,
*ORIENTATION, NAME=OR1, SYSTEM=RECTANGULAR
1.0, 0.0, 0.0, 0.0, 1.0, 0.0
3, 0
*SOLID SECTION, ELSET=PLY1, MATERIAL=GE, ORIENTATION=OR1
*ORIENTATION, NAME=OR2, SYSTEM=RECTANGULAR
1.0, 0.0, 0.0, 0.0, 1.0, 0.0
3, 90
*SOLID SECTION, ELSET=PLY2, MATERIAL=GE, ORIENTATION=OR2
*ORIENTATION, NAME=OR3, SYSTEM=RECTANGULAR
1.0, 0.0, 0.0, 0.0, 1.0, 0.0
3, 0
*SOLID SECTION, ELSET=PLY3, MATERIAL=GE, ORIENTATION=OR3
*ORIENTATION, NAME=OR4, SYSTEM=RECTANGULAR
1.0, 0.0, 0.0, 0.0, 1.0, 0.0
3, 90
*SOLID SECTION, ELSET=PLY4, MATERIAL=GE, ORIENTATION=OR4
*ORIENTATION, NAME=OR5, SYSTEM=RECTANGULAR
1.0, 0.0, 0.0, 0.0, 1.0, 0.0
3, 0
*SOLID SECTION, ELSET=PLY5, MATERIAL=HEREX, ORIENTATION=OR5
*ORIENTATION, NAME=OR6, SYSTEM=RECTANGULAR
1.0, 0.0, 0.0, 0.0, 1.0, 0.0
3, 90
*SOLID SECTION, ELSET=PLY6, MATERIAL=GE, ORIENTATION=OR6
*ORIENTATION, NAME=OR7, SYSTEM=RECTANGULAR
1.0, 0.0, 0.0, 0.0, 1.0, 0.0
3, 0
*SOLID SECTION, ELSET=PLY7, MATERIAL=GE, ORIENTATION=OR7
*ORIENTATION, NAME=OR8, SYSTEM=RECTANGULAR
1.0, 0.0, 0.0, 0.0, 1.0, 0.0
3, 90
*SOLID SECTION, ELSET=PLY8, MATERIAL=GE, ORIENTATION=OR8
*ORIENTATION, NAME=OR9, SYSTEM=RECTANGULAR
1.0, 0.0, 0.0, 0.0, 1.0, 0.0
3, 0
*SOLID SECTION, ELSET=PLY9, MATERIAL=GE, ORIENTATION=OR9
**
** SS-1 simple supports (same rule as the shell)
*BOUNDARY
NX0F, 2, 3
NXAF, 2, 3
NY0F, 1, 1
NYBF, 1, 1
NY0F, 3, 3
NYBF, 3, 3
*AMPLITUDE, NAME=FT
0., 1., 0.02, 1.
*STEP, NAME=PULSE, INC=800
*DYNAMIC
5e-05, 0.02, 5e-09, 5e-05
*DLOAD, AMPLITUDE=FT
6001, P2, 4.244297e+05
6002, P2, 1.262838e+06
6003, P2, 2.070151e+06
6004, P2, 2.826491e+06
6005, P2, 3.513232e+06
6006, P2, 4.113467e+06
6007, P2, 4.612414e+06
6008, P2, 4.997788e+06
6009, P2, 5.260100e+06
6010, P2, 5.392890e+06
6011, P2, 5.392890e+06
6012, P2, 5.260100e+06
6013, P2, 4.997788e+06
6014, P2, 4.612414e+06
6015, P2, 4.113467e+06
6016, P2, 3.513232e+06
6017, P2, 2.826491e+06
6018, P2, 2.070151e+06
6019, P2, 1.262838e+06
6020, P2, 4.244297e+05
6021, P2, 1.262838e+06
6022, P2, 3.757419e+06
6023, P2, 6.159480e+06
6024, P2, 8.409874e+06
6025, P2, 1.045319e+07
6026, P2, 1.223911e+07
6027, P2, 1.372367e+07
6028, P2, 1.487030e+07
6029, P2, 1.565078e+07
6030, P2, 1.604588e+07
6031, P2, 1.604588e+07
6032, P2, 1.565078e+07
6033, P2, 1.487030e+07
6034, P2, 1.372367e+07
6035, P2, 1.223911e+07
6036, P2, 1.045319e+07
6037, P2, 8.409874e+06
6038, P2, 6.159480e+06
6039, P2, 3.757419e+06
6040, P2, 1.262838e+06
6041, P2, 2.070151e+06
6042, P2, 6.159480e+06
6043, P2, 1.009714e+07
6044, P2, 1.378618e+07
6045, P2, 1.713575e+07
6046, P2, 2.006339e+07
6047, P2, 2.249700e+07
6048, P2, 2.437666e+07
6049, P2, 2.565608e+07
6050, P2, 2.630377e+07
6051, P2, 2.630377e+07
6052, P2, 2.565608e+07
6053, P2, 2.437666e+07
6054, P2, 2.249700e+07
6055, P2, 2.006339e+07
6056, P2, 1.713575e+07
6057, P2, 1.378618e+07
6058, P2, 1.009714e+07
6059, P2, 6.159480e+06
6060, P2, 2.070151e+06
6061, P2, 2.826491e+06
6062, P2, 8.409874e+06
6063, P2, 1.378618e+07
6064, P2, 1.882302e+07
6065, P2, 2.339638e+07
6066, P2, 2.739364e+07
6067, P2, 3.071638e+07
6068, P2, 3.328278e+07
6069, P2, 3.502965e+07
6070, P2, 3.591397e+07
6071, P2, 3.591397e+07
6072, P2, 3.502965e+07
6073, P2, 3.328278e+07
6074, P2, 3.071638e+07
6075, P2, 2.739364e+07
6076, P2, 2.339638e+07
6077, P2, 1.882302e+07
6078, P2, 1.378618e+07
6079, P2, 8.409874e+06
6080, P2, 2.826491e+06
6081, P2, 3.513232e+06
6082, P2, 1.045319e+07
6083, P2, 1.713575e+07
6084, P2, 2.339638e+07
6085, P2, 2.908091e+07
6086, P2, 3.404937e+07
6087, P2, 3.817942e+07
6088, P2, 4.136937e+07
6089, P2, 4.354067e+07
6090, P2, 4.463985e+07
6091, P2, 4.463985e+07
6092, P2, 4.354067e+07
6093, P2, 4.136937e+07
6094, P2, 3.817942e+07
6095, P2, 3.404937e+07
6096, P2, 2.908091e+07
6097, P2, 2.339638e+07
6098, P2, 1.713575e+07
6099, P2, 1.045319e+07
6100, P2, 3.513232e+06
6101, P2, 4.113467e+06
6102, P2, 1.223911e+07
6103, P2, 2.006339e+07
6104, P2, 2.739364e+07
6105, P2, 3.404937e+07
6106, P2, 3.986669e+07
6107, P2, 4.470236e+07
6108, P2, 4.843731e+07
6109, P2, 5.097957e+07
6110, P2, 5.226655e+07
6111, P2, 5.226655e+07
6112, P2, 5.097957e+07
6113, P2, 4.843731e+07
6114, P2, 4.470236e+07
6115, P2, 3.986669e+07
6116, P2, 3.404937e+07
6117, P2, 2.739364e+07
6118, P2, 2.006339e+07
6119, P2, 1.223911e+07
6120, P2, 4.113467e+06
6121, P2, 4.612414e+06
6122, P2, 1.372367e+07
6123, P2, 2.249700e+07
6124, P2, 3.071638e+07
6125, P2, 3.817942e+07
6126, P2, 4.470236e+07
6127, P2, 5.012458e+07
6128, P2, 5.431256e+07
6129, P2, 5.716319e+07
6130, P2, 5.860627e+07
6131, P2, 5.860627e+07
6132, P2, 5.716319e+07
6133, P2, 5.431256e+07
6134, P2, 5.012458e+07
6135, P2, 4.470236e+07
6136, P2, 3.817942e+07
6137, P2, 3.071638e+07
6138, P2, 2.249700e+07
6139, P2, 1.372367e+07
6140, P2, 4.612414e+06
6141, P2, 4.997788e+06
6142, P2, 1.487030e+07
6143, P2, 2.437666e+07
6144, P2, 3.328278e+07
6145, P2, 4.136937e+07
6146, P2, 4.843731e+07
6147, P2, 5.431256e+07
6148, P2, 5.885046e+07
6149, P2, 6.193926e+07
6150, P2, 6.350291e+07
6151, P2, 6.350291e+07
6152, P2, 6.193926e+07
6153, P2, 5.885046e+07
6154, P2, 5.431256e+07
6155, P2, 4.843731e+07
6156, P2, 4.136937e+07
6157, P2, 3.328278e+07
6158, P2, 2.437666e+07
6159, P2, 1.487030e+07
6160, P2, 4.997788e+06
6161, P2, 5.260100e+06
6162, P2, 1.565078e+07
6163, P2, 2.565608e+07
6164, P2, 3.502965e+07
6165, P2, 4.354067e+07
6166, P2, 5.097957e+07
6167, P2, 5.716319e+07
6168, P2, 6.193926e+07
6169, P2, 6.519018e+07
6170, P2, 6.683590e+07
6171, P2, 6.683590e+07
6172, P2, 6.519018e+07
6173, P2, 6.193926e+07
6174, P2, 5.716319e+07
6175, P2, 5.097957e+07
6176, P2, 4.354067e+07
6177, P2, 3.502965e+07
6178, P2, 2.565608e+07
6179, P2, 1.565078e+07
6180, P2, 5.260100e+06
6181, P2, 5.392890e+06
6182, P2, 1.604588e+07
6183, P2, 2.630377e+07
6184, P2, 3.591397e+07
6185, P2, 4.463985e+07
6186, P2, 5.226655e+07
6187, P2, 5.860627e+07
6188, P2, 6.350291e+07
6189, P2, 6.683590e+07
6190, P2, 6.852317e+07
6191, P2, 6.852317e+07
6192, P2, 6.683590e+07
6193, P2, 6.350291e+07
6194, P2, 5.860627e+07
6195, P2, 5.226655e+07
6196, P2, 4.463985e+07
6197, P2, 3.591397e+07
6198, P2, 2.630377e+07
6199, P2, 1.604588e+07
6200, P2, 5.392890e+06
6201, P2, 5.392890e+06
6202, P2, 1.604588e+07
6203, P2, 2.630377e+07
6204, P2, 3.591397e+07
6205, P2, 4.463985e+07
6206, P2, 5.226655e+07
6207, P2, 5.860627e+07
6208, P2, 6.350291e+07
6209, P2, 6.683590e+07
6210, P2, 6.852317e+07
6211, P2, 6.852317e+07
6212, P2, 6.683590e+07
6213, P2, 6.350291e+07
6214, P2, 5.860627e+07
6215, P2, 5.226655e+07
6216, P2, 4.463985e+07
6217, P2, 3.591397e+07
6218, P2, 2.630377e+07
6219, P2, 1.604588e+07
6220, P2, 5.392890e+06
6221, P2, 5.260100e+06
6222, P2, 1.565078e+07
6223, P2, 2.565608e+07
6224, P2, 3.502965e+07
6225, P2, 4.354067e+07
6226, P2, 5.097957e+07
6227, P2, 5.716319e+07
6228, P2, 6.193926e+07
6229, P2, 6.519018e+07
6230, P2, 6.683590e+07
6231, P2, 6.683590e+07
6232, P2, 6.519018e+07
6233, P2, 6.193926e+07
6234, P2, 5.716319e+07
6235, P2, 5.097957e+07
6236, P2, 4.354067e+07
6237, P2, 3.502965e+07
6238, P2, 2.565608e+07
6239, P2, 1.565078e+07
6240, P2, 5.260100e+06
6241, P2, 4.997788e+06
6242, P2, 1.487030e+07
6243, P2, 2.437666e+07
6244, P2, 3.328278e+07
6245, P2, 4.136937e+07
6246, P2, 4.843731e+07
6247, P2, 5.431256e+07
6248, P2, 5.885046e+07
6249, P2, 6.193926e+07
6250, P2, 6.350291e+07
6251, P2, 6.350291e+07
6252, P2, 6.193926e+07
6253, P2, 5.885046e+07
6254, P2, 5.431256e+07
6255, P2, 4.843731e+07
6256, P2, 4.136937e+07
6257, P2, 3.328278e+07
6258, P2, 2.437666e+07
6259, P2, 1.487030e+07
6260, P2, 4.997788e+06
6261, P2, 4.612414e+06
6262, P2, 1.372367e+07
6263, P2, 2.249700e+07
6264, P2, 3.071638e+07
6265, P2, 3.817942e+07
6266, P2, 4.470236e+07
6267, P2, 5.012458e+07
6268, P2, 5.431256e+07
6269, P2, 5.716319e+07
6270, P2, 5.860627e+07
6271, P2, 5.860627e+07
6272, P2, 5.716319e+07
6273, P2, 5.431256e+07
6274, P2, 5.012458e+07
6275, P2, 4.470236e+07
6276, P2, 3.817942e+07
6277, P2, 3.071638e+07
6278, P2, 2.249700e+07
6279, P2, 1.372367e+07
6280, P2, 4.612414e+06
6281, P2, 4.113467e+06
6282, P2, 1.223911e+07
6283, P2, 2.006339e+07
6284, P2, 2.739364e+07
6285, P2, 3.404937e+07
6286, P2, 3.986669e+07
6287, P2, 4.470236e+07
6288, P2, 4.843731e+07
6289, P2, 5.097957e+07
6290, P2, 5.226655e+07
6291, P2, 5.226655e+07
6292, P2, 5.097957e+07
6293, P2, 4.843731e+07
6294, P2, 4.470236e+07
6295, P2, 3.986669e+07
6296, P2, 3.404937e+07
6297, P2, 2.739364e+07
6298, P2, 2.006339e+07
6299, P2, 1.223911e+07
6300, P2, 4.113467e+06
6301, P2, 3.513232e+06
6302, P2, 1.045319e+07
6303, P2, 1.713575e+07
6304, P2, 2.339638e+07
6305, P2, 2.908091e+07
6306, P2, 3.404937e+07
6307, P2, 3.817942e+07
6308, P2, 4.136937e+07
6309, P2, 4.354067e+07
6310, P2, 4.463985e+07
6311, P2, 4.463985e+07
6312, P2, 4.354067e+07
6313, P2, 4.136937e+07
6314, P2, 3.817942e+07
6315, P2, 3.404937e+07
6316, P2, 2.908091e+07
6317, P2, 2.339638e+07
6318, P2, 1.713575e+07
6319, P2, 1.045319e+07
6320, P2, 3.513232e+06
6321, P2, 2.826491e+06
6322, P2, 8.409874e+06
6323, P2, 1.378618e+07
6324, P2, 1.882302e+07
6325, P2, 2.339638e+07
6326, P2, 2.739364e+07
6327, P2, 3.071638e+07
6328, P2, 3.328278e+07
6329, P2, 3.502965e+07
6330, P2, 3.591397e+07
6331, P2, 3.591397e+07
6332, P2, 3.502965e+07
6333, P2, 3.328278e+07
6334, P2, 3.071638e+07
6335, P2, 2.739364e+07
6336, P2, 2.339638e+07
6337, P2, 1.882302e+07
6338, P2, 1.378618e+07
6339, P2, 8.409874e+06
6340, P2, 2.826491e+06
6341, P2, 2.070151e+06
6342, P2, 6.159480e+06
6343, P2, 1.009714e+07
6344, P2, 1.378618e+07
6345, P2, 1.713575e+07
6346, P2, 2.006339e+07
6347, P2, 2.249700e+07
6348, P2, 2.437666e+07
6349, P2, 2.565608e+07
6350, P2, 2.630377e+07
6351, P2, 2.630377e+07
6352, P2, 2.565608e+07
6353, P2, 2.437666e+07
6354, P2, 2.249700e+07
6355, P2, 2.006339e+07
6356, P2, 1.713575e+07
6357, P2, 1.378618e+07
6358, P2, 1.009714e+07
6359, P2, 6.159480e+06
6360, P2, 2.070151e+06
6361, P2, 1.262838e+06
6362, P2, 3.757419e+06
6363, P2, 6.159480e+06
6364, P2, 8.409874e+06
6365, P2, 1.045319e+07
6366, P2, 1.223911e+07
6367, P2, 1.372367e+07
6368, P2, 1.487030e+07
6369, P2, 1.565078e+07
6370, P2, 1.604588e+07
6371, P2, 1.604588e+07
6372, P2, 1.565078e+07
6373, P2, 1.487030e+07
6374, P2, 1.372367e+07
6375, P2, 1.223911e+07
6376, P2, 1.045319e+07
6377, P2, 8.409874e+06
6378, P2, 6.159480e+06
6379, P2, 3.757419e+06
6380, P2, 1.262838e+06
6381, P2, 4.244297e+05
6382, P2, 1.262838e+06
6383, P2, 2.070151e+06
6384, P2, 2.826491e+06
6385, P2, 3.513232e+06
6386, P2, 4.113467e+06
6387, P2, 4.612414e+06
6388, P2, 4.997788e+06
6389, P2, 5.260100e+06
6390, P2, 5.392890e+06
6391, P2, 5.392890e+06
6392, P2, 5.260100e+06
6393, P2, 4.997788e+06
6394, P2, 4.612414e+06
6395, P2, 4.113467e+06
6396, P2, 3.513232e+06
6397, P2, 2.826491e+06
6398, P2, 2.070151e+06
6399, P2, 1.262838e+06
6400, P2, 4.244297e+05
*OUTPUT, FIELD, FREQUENCY=50
*ELEMENT OUTPUT
S
*NODE OUTPUT
U
*NODE PRINT, NSET=NCEN3D, FREQUENCY=1
U
*EL PRINT, ELSET=COLC, POSITION=CENTROIDAL, FREQUENCY=10
S
*EL PRINT, ELSET=COLX, POSITION=CENTROIDAL, FREQUENCY=10
S
*EL PRINT, ELSET=COLY, POSITION=CENTROIDAL, FREQUENCY=10
S
*END STEP
