*HEADING
Cylindrical-bending strip, MSG-RM 8x8 general shell section
** Yu-2003 sec.-6.2 analog, case1: plies (bottom->top) yu(0.5in/15), yu(0.5in/-15)
** L/h = 4 (a = 4 in, h = 1 in), p0 = 1 psi, psi/in units
** MSG-RM 8x8 general section; Abaqus supplies FF to recover_6p2.py
** D11 = 1.831516e+06 ; G11 = 3.988921e+05 ; G22 = 1.597801e+05
** span a = 4 m, q0 = 1 Pa, 100 S4 elements; load q0*sin(pi*x/a) per element
*NODE
1, 0.00000000, 0.00000000, 0.0
2, 0.00000000, 0.04000000, 0.0
3, 0.04000000, 0.00000000, 0.0
4, 0.04000000, 0.04000000, 0.0
5, 0.08000000, 0.00000000, 0.0
6, 0.08000000, 0.04000000, 0.0
7, 0.12000000, 0.00000000, 0.0
8, 0.12000000, 0.04000000, 0.0
9, 0.16000000, 0.00000000, 0.0
10, 0.16000000, 0.04000000, 0.0
11, 0.20000000, 0.00000000, 0.0
12, 0.20000000, 0.04000000, 0.0
13, 0.24000000, 0.00000000, 0.0
14, 0.24000000, 0.04000000, 0.0
15, 0.28000000, 0.00000000, 0.0
16, 0.28000000, 0.04000000, 0.0
17, 0.32000000, 0.00000000, 0.0
18, 0.32000000, 0.04000000, 0.0
19, 0.36000000, 0.00000000, 0.0
20, 0.36000000, 0.04000000, 0.0
21, 0.40000000, 0.00000000, 0.0
22, 0.40000000, 0.04000000, 0.0
23, 0.44000000, 0.00000000, 0.0
24, 0.44000000, 0.04000000, 0.0
25, 0.48000000, 0.00000000, 0.0
26, 0.48000000, 0.04000000, 0.0
27, 0.52000000, 0.00000000, 0.0
28, 0.52000000, 0.04000000, 0.0
29, 0.56000000, 0.00000000, 0.0
30, 0.56000000, 0.04000000, 0.0
31, 0.60000000, 0.00000000, 0.0
32, 0.60000000, 0.04000000, 0.0
33, 0.64000000, 0.00000000, 0.0
34, 0.64000000, 0.04000000, 0.0
35, 0.68000000, 0.00000000, 0.0
36, 0.68000000, 0.04000000, 0.0
37, 0.72000000, 0.00000000, 0.0
38, 0.72000000, 0.04000000, 0.0
39, 0.76000000, 0.00000000, 0.0
40, 0.76000000, 0.04000000, 0.0
41, 0.80000000, 0.00000000, 0.0
42, 0.80000000, 0.04000000, 0.0
43, 0.84000000, 0.00000000, 0.0
44, 0.84000000, 0.04000000, 0.0
45, 0.88000000, 0.00000000, 0.0
46, 0.88000000, 0.04000000, 0.0
47, 0.92000000, 0.00000000, 0.0
48, 0.92000000, 0.04000000, 0.0
49, 0.96000000, 0.00000000, 0.0
50, 0.96000000, 0.04000000, 0.0
51, 1.00000000, 0.00000000, 0.0
52, 1.00000000, 0.04000000, 0.0
53, 1.04000000, 0.00000000, 0.0
54, 1.04000000, 0.04000000, 0.0
55, 1.08000000, 0.00000000, 0.0
56, 1.08000000, 0.04000000, 0.0
57, 1.12000000, 0.00000000, 0.0
58, 1.12000000, 0.04000000, 0.0
59, 1.16000000, 0.00000000, 0.0
60, 1.16000000, 0.04000000, 0.0
61, 1.20000000, 0.00000000, 0.0
62, 1.20000000, 0.04000000, 0.0
63, 1.24000000, 0.00000000, 0.0
64, 1.24000000, 0.04000000, 0.0
65, 1.28000000, 0.00000000, 0.0
66, 1.28000000, 0.04000000, 0.0
67, 1.32000000, 0.00000000, 0.0
68, 1.32000000, 0.04000000, 0.0
69, 1.36000000, 0.00000000, 0.0
70, 1.36000000, 0.04000000, 0.0
71, 1.40000000, 0.00000000, 0.0
72, 1.40000000, 0.04000000, 0.0
73, 1.44000000, 0.00000000, 0.0
74, 1.44000000, 0.04000000, 0.0
75, 1.48000000, 0.00000000, 0.0
76, 1.48000000, 0.04000000, 0.0
77, 1.52000000, 0.00000000, 0.0
78, 1.52000000, 0.04000000, 0.0
79, 1.56000000, 0.00000000, 0.0
80, 1.56000000, 0.04000000, 0.0
81, 1.60000000, 0.00000000, 0.0
82, 1.60000000, 0.04000000, 0.0
83, 1.64000000, 0.00000000, 0.0
84, 1.64000000, 0.04000000, 0.0
85, 1.68000000, 0.00000000, 0.0
86, 1.68000000, 0.04000000, 0.0
87, 1.72000000, 0.00000000, 0.0
88, 1.72000000, 0.04000000, 0.0
89, 1.76000000, 0.00000000, 0.0
90, 1.76000000, 0.04000000, 0.0
91, 1.80000000, 0.00000000, 0.0
92, 1.80000000, 0.04000000, 0.0
93, 1.84000000, 0.00000000, 0.0
94, 1.84000000, 0.04000000, 0.0
95, 1.88000000, 0.00000000, 0.0
96, 1.88000000, 0.04000000, 0.0
97, 1.92000000, 0.00000000, 0.0
98, 1.92000000, 0.04000000, 0.0
99, 1.96000000, 0.00000000, 0.0
100, 1.96000000, 0.04000000, 0.0
101, 2.00000000, 0.00000000, 0.0
102, 2.00000000, 0.04000000, 0.0
103, 2.04000000, 0.00000000, 0.0
104, 2.04000000, 0.04000000, 0.0
105, 2.08000000, 0.00000000, 0.0
106, 2.08000000, 0.04000000, 0.0
107, 2.12000000, 0.00000000, 0.0
108, 2.12000000, 0.04000000, 0.0
109, 2.16000000, 0.00000000, 0.0
110, 2.16000000, 0.04000000, 0.0
111, 2.20000000, 0.00000000, 0.0
112, 2.20000000, 0.04000000, 0.0
113, 2.24000000, 0.00000000, 0.0
114, 2.24000000, 0.04000000, 0.0
115, 2.28000000, 0.00000000, 0.0
116, 2.28000000, 0.04000000, 0.0
117, 2.32000000, 0.00000000, 0.0
118, 2.32000000, 0.04000000, 0.0
119, 2.36000000, 0.00000000, 0.0
120, 2.36000000, 0.04000000, 0.0
121, 2.40000000, 0.00000000, 0.0
122, 2.40000000, 0.04000000, 0.0
123, 2.44000000, 0.00000000, 0.0
124, 2.44000000, 0.04000000, 0.0
125, 2.48000000, 0.00000000, 0.0
126, 2.48000000, 0.04000000, 0.0
127, 2.52000000, 0.00000000, 0.0
128, 2.52000000, 0.04000000, 0.0
129, 2.56000000, 0.00000000, 0.0
130, 2.56000000, 0.04000000, 0.0
131, 2.60000000, 0.00000000, 0.0
132, 2.60000000, 0.04000000, 0.0
133, 2.64000000, 0.00000000, 0.0
134, 2.64000000, 0.04000000, 0.0
135, 2.68000000, 0.00000000, 0.0
136, 2.68000000, 0.04000000, 0.0
137, 2.72000000, 0.00000000, 0.0
138, 2.72000000, 0.04000000, 0.0
139, 2.76000000, 0.00000000, 0.0
140, 2.76000000, 0.04000000, 0.0
141, 2.80000000, 0.00000000, 0.0
142, 2.80000000, 0.04000000, 0.0
143, 2.84000000, 0.00000000, 0.0
144, 2.84000000, 0.04000000, 0.0
145, 2.88000000, 0.00000000, 0.0
146, 2.88000000, 0.04000000, 0.0
147, 2.92000000, 0.00000000, 0.0
148, 2.92000000, 0.04000000, 0.0
149, 2.96000000, 0.00000000, 0.0
150, 2.96000000, 0.04000000, 0.0
151, 3.00000000, 0.00000000, 0.0
152, 3.00000000, 0.04000000, 0.0
153, 3.04000000, 0.00000000, 0.0
154, 3.04000000, 0.04000000, 0.0
155, 3.08000000, 0.00000000, 0.0
156, 3.08000000, 0.04000000, 0.0
157, 3.12000000, 0.00000000, 0.0
158, 3.12000000, 0.04000000, 0.0
159, 3.16000000, 0.00000000, 0.0
160, 3.16000000, 0.04000000, 0.0
161, 3.20000000, 0.00000000, 0.0
162, 3.20000000, 0.04000000, 0.0
163, 3.24000000, 0.00000000, 0.0
164, 3.24000000, 0.04000000, 0.0
165, 3.28000000, 0.00000000, 0.0
166, 3.28000000, 0.04000000, 0.0
167, 3.32000000, 0.00000000, 0.0
168, 3.32000000, 0.04000000, 0.0
169, 3.36000000, 0.00000000, 0.0
170, 3.36000000, 0.04000000, 0.0
171, 3.40000000, 0.00000000, 0.0
172, 3.40000000, 0.04000000, 0.0
173, 3.44000000, 0.00000000, 0.0
174, 3.44000000, 0.04000000, 0.0
175, 3.48000000, 0.00000000, 0.0
176, 3.48000000, 0.04000000, 0.0
177, 3.52000000, 0.00000000, 0.0
178, 3.52000000, 0.04000000, 0.0
179, 3.56000000, 0.00000000, 0.0
180, 3.56000000, 0.04000000, 0.0
181, 3.60000000, 0.00000000, 0.0
182, 3.60000000, 0.04000000, 0.0
183, 3.64000000, 0.00000000, 0.0
184, 3.64000000, 0.04000000, 0.0
185, 3.68000000, 0.00000000, 0.0
186, 3.68000000, 0.04000000, 0.0
187, 3.72000000, 0.00000000, 0.0
188, 3.72000000, 0.04000000, 0.0
189, 3.76000000, 0.00000000, 0.0
190, 3.76000000, 0.04000000, 0.0
191, 3.80000000, 0.00000000, 0.0
192, 3.80000000, 0.04000000, 0.0
193, 3.84000000, 0.00000000, 0.0
194, 3.84000000, 0.04000000, 0.0
195, 3.88000000, 0.00000000, 0.0
196, 3.88000000, 0.04000000, 0.0
197, 3.92000000, 0.00000000, 0.0
198, 3.92000000, 0.04000000, 0.0
199, 3.96000000, 0.00000000, 0.0
200, 3.96000000, 0.04000000, 0.0
201, 4.00000000, 0.00000000, 0.0
202, 4.00000000, 0.04000000, 0.0
*ELEMENT, TYPE=S4, ELSET=EALL
1, 1, 3, 4, 2
2, 3, 5, 6, 4
3, 5, 7, 8, 6
4, 7, 9, 10, 8
5, 9, 11, 12, 10
6, 11, 13, 14, 12
7, 13, 15, 16, 14
8, 15, 17, 18, 16
9, 17, 19, 20, 18
10, 19, 21, 22, 20
11, 21, 23, 24, 22
12, 23, 25, 26, 24
13, 25, 27, 28, 26
14, 27, 29, 30, 28
15, 29, 31, 32, 30
16, 31, 33, 34, 32
17, 33, 35, 36, 34
18, 35, 37, 38, 36
19, 37, 39, 40, 38
20, 39, 41, 42, 40
21, 41, 43, 44, 42
22, 43, 45, 46, 44
23, 45, 47, 48, 46
24, 47, 49, 50, 48
25, 49, 51, 52, 50
26, 51, 53, 54, 52
27, 53, 55, 56, 54
28, 55, 57, 58, 56
29, 57, 59, 60, 58
30, 59, 61, 62, 60
31, 61, 63, 64, 62
32, 63, 65, 66, 64
33, 65, 67, 68, 66
34, 67, 69, 70, 68
35, 69, 71, 72, 70
36, 71, 73, 74, 72
37, 73, 75, 76, 74
38, 75, 77, 78, 76
39, 77, 79, 80, 78
40, 79, 81, 82, 80
41, 81, 83, 84, 82
42, 83, 85, 86, 84
43, 85, 87, 88, 86
44, 87, 89, 90, 88
45, 89, 91, 92, 90
46, 91, 93, 94, 92
47, 93, 95, 96, 94
48, 95, 97, 98, 96
49, 97, 99, 100, 98
50, 99, 101, 102, 100
51, 101, 103, 104, 102
52, 103, 105, 106, 104
53, 105, 107, 108, 106
54, 107, 109, 110, 108
55, 109, 111, 112, 110
56, 111, 113, 114, 112
57, 113, 115, 116, 114
58, 115, 117, 118, 116
59, 117, 119, 120, 118
60, 119, 121, 122, 120
61, 121, 123, 124, 122
62, 123, 125, 126, 124
63, 125, 127, 128, 126
64, 127, 129, 130, 128
65, 129, 131, 132, 130
66, 131, 133, 134, 132
67, 133, 135, 136, 134
68, 135, 137, 138, 136
69, 137, 139, 140, 138
70, 139, 141, 142, 140
71, 141, 143, 144, 142
72, 143, 145, 146, 144
73, 145, 147, 148, 146
74, 147, 149, 150, 148
75, 149, 151, 152, 150
76, 151, 153, 154, 152
77, 153, 155, 156, 154
78, 155, 157, 158, 156
79, 157, 159, 160, 158
80, 159, 161, 162, 160
81, 161, 163, 164, 162
82, 163, 165, 166, 164
83, 165, 167, 168, 166
84, 167, 169, 170, 168
85, 169, 171, 172, 170
86, 171, 173, 174, 172
87, 173, 175, 176, 174
88, 175, 177, 178, 176
89, 177, 179, 180, 178
90, 179, 181, 182, 180
91, 181, 183, 184, 182
92, 183, 185, 186, 184
93, 185, 187, 188, 186
94, 187, 189, 190, 188
95, 189, 191, 192, 190
96, 191, 193, 194, 192
97, 193, 195, 196, 194
98, 195, 197, 198, 196
99, 197, 199, 200, 198
100, 199, 201, 202, 200
*ELSET, ELSET=EMID
50
*ELSET, ELSET=EEND
1
*NSET, NSET=NX0
1, 2
*NSET, NSET=NXA
201, 202
*NSET, NSET=NMID
101
*NSET, NSET=NALL, GENERATE
1, 202, 1
**
** ---- the MSG-RM section: [[A,B],[B,D]] 21 constants + the 2x2 shear G ----
*SHELL GENERAL SECTION, ELSET=EALL
2.197819e+07, 1.723371e+06, 1.141486e+06, -3.771186e-10, 9.712472e-13, 1.972744e+06, 1.314696e-10, 3.284513e-12
-1.389597e+06, 1.831516e+06, 3.284513e-12, -8.848014e-12, -1.141627e+05, 1.436142e+05, 9.512386e+04, -1.389597e+06
-1.141627e+05, 1.921711e-11, 6.242425e-12, 4.038804e-12, 1.643954e+05
*TRANSVERSE SHEAR STIFFNESS
3.988921e+05, 1.597801e+05, -5.115322e-11
**
** ---- cylindrical bending + simple supports ----
*BOUNDARY
1, 2, 2
NALL, 6, 6
NX0, 3, 3
NXA, 3, 3
NX0, 1, 1
**
*STEP, NAME=SINELOAD
*STATIC
*DLOAD
1, P, 1.570732e-02
2, P, 4.710645e-02
3, P, 7.845910e-02
4, P, 1.097343e-01
5, P, 1.409012e-01
6, P, 1.719291e-01
7, P, 2.027873e-01
8, P, 2.334454e-01
9, P, 2.638730e-01
10, P, 2.940403e-01
11, P, 3.239174e-01
12, P, 3.534748e-01
13, P, 3.826834e-01
14, P, 4.115144e-01
15, P, 4.399392e-01
16, P, 4.679298e-01
17, P, 4.954587e-01
18, P, 5.224986e-01
19, P, 5.490228e-01
20, P, 5.750053e-01
21, P, 6.004202e-01
22, P, 6.252427e-01
23, P, 6.494480e-01
24, P, 6.730125e-01
25, P, 6.959128e-01
26, P, 7.181263e-01
27, P, 7.396311e-01
28, P, 7.604060e-01
29, P, 7.804304e-01
30, P, 7.996847e-01
31, P, 8.181497e-01
32, P, 8.358074e-01
33, P, 8.526402e-01
34, P, 8.686315e-01
35, P, 8.837656e-01
36, P, 8.980276e-01
37, P, 9.114033e-01
38, P, 9.238795e-01
39, P, 9.354440e-01
40, P, 9.460854e-01
41, P, 9.557930e-01
42, P, 9.645574e-01
43, P, 9.723699e-01
44, P, 9.792228e-01
45, P, 9.851093e-01
46, P, 9.900237e-01
47, P, 9.939610e-01
48, P, 9.969173e-01
49, P, 9.988899e-01
50, P, 9.998766e-01
51, P, 9.998766e-01
52, P, 9.988899e-01
53, P, 9.969173e-01
54, P, 9.939610e-01
55, P, 9.900237e-01
56, P, 9.851093e-01
57, P, 9.792228e-01
58, P, 9.723699e-01
59, P, 9.645574e-01
60, P, 9.557930e-01
61, P, 9.460854e-01
62, P, 9.354440e-01
63, P, 9.238795e-01
64, P, 9.114033e-01
65, P, 8.980276e-01
66, P, 8.837656e-01
67, P, 8.686315e-01
68, P, 8.526402e-01
69, P, 8.358074e-01
70, P, 8.181497e-01
71, P, 7.996847e-01
72, P, 7.804304e-01
73, P, 7.604060e-01
74, P, 7.396311e-01
75, P, 7.181263e-01
76, P, 6.959128e-01
77, P, 6.730125e-01
78, P, 6.494480e-01
79, P, 6.252427e-01
80, P, 6.004202e-01
81, P, 5.750053e-01
82, P, 5.490228e-01
83, P, 5.224986e-01
84, P, 4.954587e-01
85, P, 4.679298e-01
86, P, 4.399392e-01
87, P, 4.115144e-01
88, P, 3.826834e-01
89, P, 3.534748e-01
90, P, 3.239174e-01
91, P, 2.940403e-01
92, P, 2.638730e-01
93, P, 2.334454e-01
94, P, 2.027873e-01
95, P, 1.719291e-01
96, P, 1.409012e-01
97, P, 1.097343e-01
98, P, 7.845910e-02
99, P, 4.710645e-02
100, P, 1.570732e-02
*OUTPUT, FIELD
*ELEMENT OUTPUT
SF, SM
*NODE OUTPUT
U
*NODE PRINT, NSET=NMID
U
*EL PRINT, ELSET=EMID
SF, SM
*EL PRINT, ELSET=EEND
SF, SM
*END STEP
