*HEADING
Nayak Ex.1 isotropic plate, center patch step load, OpenSG-RM S4
*NODE
1, 0.00000000, 0.00000000, 0.0
2, 0.07070000, 0.00000000, 0.0
3, 0.14140000, 0.00000000, 0.0
4, 0.21210000, 0.00000000, 0.0
5, 0.28280000, 0.00000000, 0.0
6, 0.35350000, 0.00000000, 0.0
7, 0.42420000, 0.00000000, 0.0
8, 0.49490000, 0.00000000, 0.0
9, 0.56560000, 0.00000000, 0.0
10, 0.63630000, 0.00000000, 0.0
11, 0.70700000, 0.00000000, 0.0
12, 0.77770000, 0.00000000, 0.0
13, 0.84840000, 0.00000000, 0.0
14, 0.91910000, 0.00000000, 0.0
15, 0.98980000, 0.00000000, 0.0
16, 1.06050000, 0.00000000, 0.0
17, 1.13120000, 0.00000000, 0.0
18, 1.20190000, 0.00000000, 0.0
19, 1.27260000, 0.00000000, 0.0
20, 1.34330000, 0.00000000, 0.0
21, 1.41400000, 0.00000000, 0.0
22, 0.00000000, 0.05000000, 0.0
23, 0.07070000, 0.05000000, 0.0
24, 0.14140000, 0.05000000, 0.0
25, 0.21210000, 0.05000000, 0.0
26, 0.28280000, 0.05000000, 0.0
27, 0.35350000, 0.05000000, 0.0
28, 0.42420000, 0.05000000, 0.0
29, 0.49490000, 0.05000000, 0.0
30, 0.56560000, 0.05000000, 0.0
31, 0.63630000, 0.05000000, 0.0
32, 0.70700000, 0.05000000, 0.0
33, 0.77770000, 0.05000000, 0.0
34, 0.84840000, 0.05000000, 0.0
35, 0.91910000, 0.05000000, 0.0
36, 0.98980000, 0.05000000, 0.0
37, 1.06050000, 0.05000000, 0.0
38, 1.13120000, 0.05000000, 0.0
39, 1.20190000, 0.05000000, 0.0
40, 1.27260000, 0.05000000, 0.0
41, 1.34330000, 0.05000000, 0.0
42, 1.41400000, 0.05000000, 0.0
43, 0.00000000, 0.10000000, 0.0
44, 0.07070000, 0.10000000, 0.0
45, 0.14140000, 0.10000000, 0.0
46, 0.21210000, 0.10000000, 0.0
47, 0.28280000, 0.10000000, 0.0
48, 0.35350000, 0.10000000, 0.0
49, 0.42420000, 0.10000000, 0.0
50, 0.49490000, 0.10000000, 0.0
51, 0.56560000, 0.10000000, 0.0
52, 0.63630000, 0.10000000, 0.0
53, 0.70700000, 0.10000000, 0.0
54, 0.77770000, 0.10000000, 0.0
55, 0.84840000, 0.10000000, 0.0
56, 0.91910000, 0.10000000, 0.0
57, 0.98980000, 0.10000000, 0.0
58, 1.06050000, 0.10000000, 0.0
59, 1.13120000, 0.10000000, 0.0
60, 1.20190000, 0.10000000, 0.0
61, 1.27260000, 0.10000000, 0.0
62, 1.34330000, 0.10000000, 0.0
63, 1.41400000, 0.10000000, 0.0
64, 0.00000000, 0.15000000, 0.0
65, 0.07070000, 0.15000000, 0.0
66, 0.14140000, 0.15000000, 0.0
67, 0.21210000, 0.15000000, 0.0
68, 0.28280000, 0.15000000, 0.0
69, 0.35350000, 0.15000000, 0.0
70, 0.42420000, 0.15000000, 0.0
71, 0.49490000, 0.15000000, 0.0
72, 0.56560000, 0.15000000, 0.0
73, 0.63630000, 0.15000000, 0.0
74, 0.70700000, 0.15000000, 0.0
75, 0.77770000, 0.15000000, 0.0
76, 0.84840000, 0.15000000, 0.0
77, 0.91910000, 0.15000000, 0.0
78, 0.98980000, 0.15000000, 0.0
79, 1.06050000, 0.15000000, 0.0
80, 1.13120000, 0.15000000, 0.0
81, 1.20190000, 0.15000000, 0.0
82, 1.27260000, 0.15000000, 0.0
83, 1.34330000, 0.15000000, 0.0
84, 1.41400000, 0.15000000, 0.0
85, 0.00000000, 0.20000000, 0.0
86, 0.07070000, 0.20000000, 0.0
87, 0.14140000, 0.20000000, 0.0
88, 0.21210000, 0.20000000, 0.0
89, 0.28280000, 0.20000000, 0.0
90, 0.35350000, 0.20000000, 0.0
91, 0.42420000, 0.20000000, 0.0
92, 0.49490000, 0.20000000, 0.0
93, 0.56560000, 0.20000000, 0.0
94, 0.63630000, 0.20000000, 0.0
95, 0.70700000, 0.20000000, 0.0
96, 0.77770000, 0.20000000, 0.0
97, 0.84840000, 0.20000000, 0.0
98, 0.91910000, 0.20000000, 0.0
99, 0.98980000, 0.20000000, 0.0
100, 1.06050000, 0.20000000, 0.0
101, 1.13120000, 0.20000000, 0.0
102, 1.20190000, 0.20000000, 0.0
103, 1.27260000, 0.20000000, 0.0
104, 1.34330000, 0.20000000, 0.0
105, 1.41400000, 0.20000000, 0.0
106, 0.00000000, 0.25000000, 0.0
107, 0.07070000, 0.25000000, 0.0
108, 0.14140000, 0.25000000, 0.0
109, 0.21210000, 0.25000000, 0.0
110, 0.28280000, 0.25000000, 0.0
111, 0.35350000, 0.25000000, 0.0
112, 0.42420000, 0.25000000, 0.0
113, 0.49490000, 0.25000000, 0.0
114, 0.56560000, 0.25000000, 0.0
115, 0.63630000, 0.25000000, 0.0
116, 0.70700000, 0.25000000, 0.0
117, 0.77770000, 0.25000000, 0.0
118, 0.84840000, 0.25000000, 0.0
119, 0.91910000, 0.25000000, 0.0
120, 0.98980000, 0.25000000, 0.0
121, 1.06050000, 0.25000000, 0.0
122, 1.13120000, 0.25000000, 0.0
123, 1.20190000, 0.25000000, 0.0
124, 1.27260000, 0.25000000, 0.0
125, 1.34330000, 0.25000000, 0.0
126, 1.41400000, 0.25000000, 0.0
127, 0.00000000, 0.30000000, 0.0
128, 0.07070000, 0.30000000, 0.0
129, 0.14140000, 0.30000000, 0.0
130, 0.21210000, 0.30000000, 0.0
131, 0.28280000, 0.30000000, 0.0
132, 0.35350000, 0.30000000, 0.0
133, 0.42420000, 0.30000000, 0.0
134, 0.49490000, 0.30000000, 0.0
135, 0.56560000, 0.30000000, 0.0
136, 0.63630000, 0.30000000, 0.0
137, 0.70700000, 0.30000000, 0.0
138, 0.77770000, 0.30000000, 0.0
139, 0.84840000, 0.30000000, 0.0
140, 0.91910000, 0.30000000, 0.0
141, 0.98980000, 0.30000000, 0.0
142, 1.06050000, 0.30000000, 0.0
143, 1.13120000, 0.30000000, 0.0
144, 1.20190000, 0.30000000, 0.0
145, 1.27260000, 0.30000000, 0.0
146, 1.34330000, 0.30000000, 0.0
147, 1.41400000, 0.30000000, 0.0
148, 0.00000000, 0.35000000, 0.0
149, 0.07070000, 0.35000000, 0.0
150, 0.14140000, 0.35000000, 0.0
151, 0.21210000, 0.35000000, 0.0
152, 0.28280000, 0.35000000, 0.0
153, 0.35350000, 0.35000000, 0.0
154, 0.42420000, 0.35000000, 0.0
155, 0.49490000, 0.35000000, 0.0
156, 0.56560000, 0.35000000, 0.0
157, 0.63630000, 0.35000000, 0.0
158, 0.70700000, 0.35000000, 0.0
159, 0.77770000, 0.35000000, 0.0
160, 0.84840000, 0.35000000, 0.0
161, 0.91910000, 0.35000000, 0.0
162, 0.98980000, 0.35000000, 0.0
163, 1.06050000, 0.35000000, 0.0
164, 1.13120000, 0.35000000, 0.0
165, 1.20190000, 0.35000000, 0.0
166, 1.27260000, 0.35000000, 0.0
167, 1.34330000, 0.35000000, 0.0
168, 1.41400000, 0.35000000, 0.0
169, 0.00000000, 0.40000000, 0.0
170, 0.07070000, 0.40000000, 0.0
171, 0.14140000, 0.40000000, 0.0
172, 0.21210000, 0.40000000, 0.0
173, 0.28280000, 0.40000000, 0.0
174, 0.35350000, 0.40000000, 0.0
175, 0.42420000, 0.40000000, 0.0
176, 0.49490000, 0.40000000, 0.0
177, 0.56560000, 0.40000000, 0.0
178, 0.63630000, 0.40000000, 0.0
179, 0.70700000, 0.40000000, 0.0
180, 0.77770000, 0.40000000, 0.0
181, 0.84840000, 0.40000000, 0.0
182, 0.91910000, 0.40000000, 0.0
183, 0.98980000, 0.40000000, 0.0
184, 1.06050000, 0.40000000, 0.0
185, 1.13120000, 0.40000000, 0.0
186, 1.20190000, 0.40000000, 0.0
187, 1.27260000, 0.40000000, 0.0
188, 1.34330000, 0.40000000, 0.0
189, 1.41400000, 0.40000000, 0.0
190, 0.00000000, 0.45000000, 0.0
191, 0.07070000, 0.45000000, 0.0
192, 0.14140000, 0.45000000, 0.0
193, 0.21210000, 0.45000000, 0.0
194, 0.28280000, 0.45000000, 0.0
195, 0.35350000, 0.45000000, 0.0
196, 0.42420000, 0.45000000, 0.0
197, 0.49490000, 0.45000000, 0.0
198, 0.56560000, 0.45000000, 0.0
199, 0.63630000, 0.45000000, 0.0
200, 0.70700000, 0.45000000, 0.0
201, 0.77770000, 0.45000000, 0.0
202, 0.84840000, 0.45000000, 0.0
203, 0.91910000, 0.45000000, 0.0
204, 0.98980000, 0.45000000, 0.0
205, 1.06050000, 0.45000000, 0.0
206, 1.13120000, 0.45000000, 0.0
207, 1.20190000, 0.45000000, 0.0
208, 1.27260000, 0.45000000, 0.0
209, 1.34330000, 0.45000000, 0.0
210, 1.41400000, 0.45000000, 0.0
211, 0.00000000, 0.50000000, 0.0
212, 0.07070000, 0.50000000, 0.0
213, 0.14140000, 0.50000000, 0.0
214, 0.21210000, 0.50000000, 0.0
215, 0.28280000, 0.50000000, 0.0
216, 0.35350000, 0.50000000, 0.0
217, 0.42420000, 0.50000000, 0.0
218, 0.49490000, 0.50000000, 0.0
219, 0.56560000, 0.50000000, 0.0
220, 0.63630000, 0.50000000, 0.0
221, 0.70700000, 0.50000000, 0.0
222, 0.77770000, 0.50000000, 0.0
223, 0.84840000, 0.50000000, 0.0
224, 0.91910000, 0.50000000, 0.0
225, 0.98980000, 0.50000000, 0.0
226, 1.06050000, 0.50000000, 0.0
227, 1.13120000, 0.50000000, 0.0
228, 1.20190000, 0.50000000, 0.0
229, 1.27260000, 0.50000000, 0.0
230, 1.34330000, 0.50000000, 0.0
231, 1.41400000, 0.50000000, 0.0
232, 0.00000000, 0.55000000, 0.0
233, 0.07070000, 0.55000000, 0.0
234, 0.14140000, 0.55000000, 0.0
235, 0.21210000, 0.55000000, 0.0
236, 0.28280000, 0.55000000, 0.0
237, 0.35350000, 0.55000000, 0.0
238, 0.42420000, 0.55000000, 0.0
239, 0.49490000, 0.55000000, 0.0
240, 0.56560000, 0.55000000, 0.0
241, 0.63630000, 0.55000000, 0.0
242, 0.70700000, 0.55000000, 0.0
243, 0.77770000, 0.55000000, 0.0
244, 0.84840000, 0.55000000, 0.0
245, 0.91910000, 0.55000000, 0.0
246, 0.98980000, 0.55000000, 0.0
247, 1.06050000, 0.55000000, 0.0
248, 1.13120000, 0.55000000, 0.0
249, 1.20190000, 0.55000000, 0.0
250, 1.27260000, 0.55000000, 0.0
251, 1.34330000, 0.55000000, 0.0
252, 1.41400000, 0.55000000, 0.0
253, 0.00000000, 0.60000000, 0.0
254, 0.07070000, 0.60000000, 0.0
255, 0.14140000, 0.60000000, 0.0
256, 0.21210000, 0.60000000, 0.0
257, 0.28280000, 0.60000000, 0.0
258, 0.35350000, 0.60000000, 0.0
259, 0.42420000, 0.60000000, 0.0
260, 0.49490000, 0.60000000, 0.0
261, 0.56560000, 0.60000000, 0.0
262, 0.63630000, 0.60000000, 0.0
263, 0.70700000, 0.60000000, 0.0
264, 0.77770000, 0.60000000, 0.0
265, 0.84840000, 0.60000000, 0.0
266, 0.91910000, 0.60000000, 0.0
267, 0.98980000, 0.60000000, 0.0
268, 1.06050000, 0.60000000, 0.0
269, 1.13120000, 0.60000000, 0.0
270, 1.20190000, 0.60000000, 0.0
271, 1.27260000, 0.60000000, 0.0
272, 1.34330000, 0.60000000, 0.0
273, 1.41400000, 0.60000000, 0.0
274, 0.00000000, 0.65000000, 0.0
275, 0.07070000, 0.65000000, 0.0
276, 0.14140000, 0.65000000, 0.0
277, 0.21210000, 0.65000000, 0.0
278, 0.28280000, 0.65000000, 0.0
279, 0.35350000, 0.65000000, 0.0
280, 0.42420000, 0.65000000, 0.0
281, 0.49490000, 0.65000000, 0.0
282, 0.56560000, 0.65000000, 0.0
283, 0.63630000, 0.65000000, 0.0
284, 0.70700000, 0.65000000, 0.0
285, 0.77770000, 0.65000000, 0.0
286, 0.84840000, 0.65000000, 0.0
287, 0.91910000, 0.65000000, 0.0
288, 0.98980000, 0.65000000, 0.0
289, 1.06050000, 0.65000000, 0.0
290, 1.13120000, 0.65000000, 0.0
291, 1.20190000, 0.65000000, 0.0
292, 1.27260000, 0.65000000, 0.0
293, 1.34330000, 0.65000000, 0.0
294, 1.41400000, 0.65000000, 0.0
295, 0.00000000, 0.70000000, 0.0
296, 0.07070000, 0.70000000, 0.0
297, 0.14140000, 0.70000000, 0.0
298, 0.21210000, 0.70000000, 0.0
299, 0.28280000, 0.70000000, 0.0
300, 0.35350000, 0.70000000, 0.0
301, 0.42420000, 0.70000000, 0.0
302, 0.49490000, 0.70000000, 0.0
303, 0.56560000, 0.70000000, 0.0
304, 0.63630000, 0.70000000, 0.0
305, 0.70700000, 0.70000000, 0.0
306, 0.77770000, 0.70000000, 0.0
307, 0.84840000, 0.70000000, 0.0
308, 0.91910000, 0.70000000, 0.0
309, 0.98980000, 0.70000000, 0.0
310, 1.06050000, 0.70000000, 0.0
311, 1.13120000, 0.70000000, 0.0
312, 1.20190000, 0.70000000, 0.0
313, 1.27260000, 0.70000000, 0.0
314, 1.34330000, 0.70000000, 0.0
315, 1.41400000, 0.70000000, 0.0
316, 0.00000000, 0.75000000, 0.0
317, 0.07070000, 0.75000000, 0.0
318, 0.14140000, 0.75000000, 0.0
319, 0.21210000, 0.75000000, 0.0
320, 0.28280000, 0.75000000, 0.0
321, 0.35350000, 0.75000000, 0.0
322, 0.42420000, 0.75000000, 0.0
323, 0.49490000, 0.75000000, 0.0
324, 0.56560000, 0.75000000, 0.0
325, 0.63630000, 0.75000000, 0.0
326, 0.70700000, 0.75000000, 0.0
327, 0.77770000, 0.75000000, 0.0
328, 0.84840000, 0.75000000, 0.0
329, 0.91910000, 0.75000000, 0.0
330, 0.98980000, 0.75000000, 0.0
331, 1.06050000, 0.75000000, 0.0
332, 1.13120000, 0.75000000, 0.0
333, 1.20190000, 0.75000000, 0.0
334, 1.27260000, 0.75000000, 0.0
335, 1.34330000, 0.75000000, 0.0
336, 1.41400000, 0.75000000, 0.0
337, 0.00000000, 0.80000000, 0.0
338, 0.07070000, 0.80000000, 0.0
339, 0.14140000, 0.80000000, 0.0
340, 0.21210000, 0.80000000, 0.0
341, 0.28280000, 0.80000000, 0.0
342, 0.35350000, 0.80000000, 0.0
343, 0.42420000, 0.80000000, 0.0
344, 0.49490000, 0.80000000, 0.0
345, 0.56560000, 0.80000000, 0.0
346, 0.63630000, 0.80000000, 0.0
347, 0.70700000, 0.80000000, 0.0
348, 0.77770000, 0.80000000, 0.0
349, 0.84840000, 0.80000000, 0.0
350, 0.91910000, 0.80000000, 0.0
351, 0.98980000, 0.80000000, 0.0
352, 1.06050000, 0.80000000, 0.0
353, 1.13120000, 0.80000000, 0.0
354, 1.20190000, 0.80000000, 0.0
355, 1.27260000, 0.80000000, 0.0
356, 1.34330000, 0.80000000, 0.0
357, 1.41400000, 0.80000000, 0.0
358, 0.00000000, 0.85000000, 0.0
359, 0.07070000, 0.85000000, 0.0
360, 0.14140000, 0.85000000, 0.0
361, 0.21210000, 0.85000000, 0.0
362, 0.28280000, 0.85000000, 0.0
363, 0.35350000, 0.85000000, 0.0
364, 0.42420000, 0.85000000, 0.0
365, 0.49490000, 0.85000000, 0.0
366, 0.56560000, 0.85000000, 0.0
367, 0.63630000, 0.85000000, 0.0
368, 0.70700000, 0.85000000, 0.0
369, 0.77770000, 0.85000000, 0.0
370, 0.84840000, 0.85000000, 0.0
371, 0.91910000, 0.85000000, 0.0
372, 0.98980000, 0.85000000, 0.0
373, 1.06050000, 0.85000000, 0.0
374, 1.13120000, 0.85000000, 0.0
375, 1.20190000, 0.85000000, 0.0
376, 1.27260000, 0.85000000, 0.0
377, 1.34330000, 0.85000000, 0.0
378, 1.41400000, 0.85000000, 0.0
379, 0.00000000, 0.90000000, 0.0
380, 0.07070000, 0.90000000, 0.0
381, 0.14140000, 0.90000000, 0.0
382, 0.21210000, 0.90000000, 0.0
383, 0.28280000, 0.90000000, 0.0
384, 0.35350000, 0.90000000, 0.0
385, 0.42420000, 0.90000000, 0.0
386, 0.49490000, 0.90000000, 0.0
387, 0.56560000, 0.90000000, 0.0
388, 0.63630000, 0.90000000, 0.0
389, 0.70700000, 0.90000000, 0.0
390, 0.77770000, 0.90000000, 0.0
391, 0.84840000, 0.90000000, 0.0
392, 0.91910000, 0.90000000, 0.0
393, 0.98980000, 0.90000000, 0.0
394, 1.06050000, 0.90000000, 0.0
395, 1.13120000, 0.90000000, 0.0
396, 1.20190000, 0.90000000, 0.0
397, 1.27260000, 0.90000000, 0.0
398, 1.34330000, 0.90000000, 0.0
399, 1.41400000, 0.90000000, 0.0
400, 0.00000000, 0.95000000, 0.0
401, 0.07070000, 0.95000000, 0.0
402, 0.14140000, 0.95000000, 0.0
403, 0.21210000, 0.95000000, 0.0
404, 0.28280000, 0.95000000, 0.0
405, 0.35350000, 0.95000000, 0.0
406, 0.42420000, 0.95000000, 0.0
407, 0.49490000, 0.95000000, 0.0
408, 0.56560000, 0.95000000, 0.0
409, 0.63630000, 0.95000000, 0.0
410, 0.70700000, 0.95000000, 0.0
411, 0.77770000, 0.95000000, 0.0
412, 0.84840000, 0.95000000, 0.0
413, 0.91910000, 0.95000000, 0.0
414, 0.98980000, 0.95000000, 0.0
415, 1.06050000, 0.95000000, 0.0
416, 1.13120000, 0.95000000, 0.0
417, 1.20190000, 0.95000000, 0.0
418, 1.27260000, 0.95000000, 0.0
419, 1.34330000, 0.95000000, 0.0
420, 1.41400000, 0.95000000, 0.0
421, 0.00000000, 1.00000000, 0.0
422, 0.07070000, 1.00000000, 0.0
423, 0.14140000, 1.00000000, 0.0
424, 0.21210000, 1.00000000, 0.0
425, 0.28280000, 1.00000000, 0.0
426, 0.35350000, 1.00000000, 0.0
427, 0.42420000, 1.00000000, 0.0
428, 0.49490000, 1.00000000, 0.0
429, 0.56560000, 1.00000000, 0.0
430, 0.63630000, 1.00000000, 0.0
431, 0.70700000, 1.00000000, 0.0
432, 0.77770000, 1.00000000, 0.0
433, 0.84840000, 1.00000000, 0.0
434, 0.91910000, 1.00000000, 0.0
435, 0.98980000, 1.00000000, 0.0
436, 1.06050000, 1.00000000, 0.0
437, 1.13120000, 1.00000000, 0.0
438, 1.20190000, 1.00000000, 0.0
439, 1.27260000, 1.00000000, 0.0
440, 1.34330000, 1.00000000, 0.0
441, 1.41400000, 1.00000000, 0.0
*ELEMENT, TYPE=S4, ELSET=EALL
1, 1, 2, 23, 22
2, 2, 3, 24, 23
3, 3, 4, 25, 24
4, 4, 5, 26, 25
5, 5, 6, 27, 26
6, 6, 7, 28, 27
7, 7, 8, 29, 28
8, 8, 9, 30, 29
9, 9, 10, 31, 30
10, 10, 11, 32, 31
11, 11, 12, 33, 32
12, 12, 13, 34, 33
13, 13, 14, 35, 34
14, 14, 15, 36, 35
15, 15, 16, 37, 36
16, 16, 17, 38, 37
17, 17, 18, 39, 38
18, 18, 19, 40, 39
19, 19, 20, 41, 40
20, 20, 21, 42, 41
21, 22, 23, 44, 43
22, 23, 24, 45, 44
23, 24, 25, 46, 45
24, 25, 26, 47, 46
25, 26, 27, 48, 47
26, 27, 28, 49, 48
27, 28, 29, 50, 49
28, 29, 30, 51, 50
29, 30, 31, 52, 51
30, 31, 32, 53, 52
31, 32, 33, 54, 53
32, 33, 34, 55, 54
33, 34, 35, 56, 55
34, 35, 36, 57, 56
35, 36, 37, 58, 57
36, 37, 38, 59, 58
37, 38, 39, 60, 59
38, 39, 40, 61, 60
39, 40, 41, 62, 61
40, 41, 42, 63, 62
41, 43, 44, 65, 64
42, 44, 45, 66, 65
43, 45, 46, 67, 66
44, 46, 47, 68, 67
45, 47, 48, 69, 68
46, 48, 49, 70, 69
47, 49, 50, 71, 70
48, 50, 51, 72, 71
49, 51, 52, 73, 72
50, 52, 53, 74, 73
51, 53, 54, 75, 74
52, 54, 55, 76, 75
53, 55, 56, 77, 76
54, 56, 57, 78, 77
55, 57, 58, 79, 78
56, 58, 59, 80, 79
57, 59, 60, 81, 80
58, 60, 61, 82, 81
59, 61, 62, 83, 82
60, 62, 63, 84, 83
61, 64, 65, 86, 85
62, 65, 66, 87, 86
63, 66, 67, 88, 87
64, 67, 68, 89, 88
65, 68, 69, 90, 89
66, 69, 70, 91, 90
67, 70, 71, 92, 91
68, 71, 72, 93, 92
69, 72, 73, 94, 93
70, 73, 74, 95, 94
71, 74, 75, 96, 95
72, 75, 76, 97, 96
73, 76, 77, 98, 97
74, 77, 78, 99, 98
75, 78, 79, 100, 99
76, 79, 80, 101, 100
77, 80, 81, 102, 101
78, 81, 82, 103, 102
79, 82, 83, 104, 103
80, 83, 84, 105, 104
81, 85, 86, 107, 106
82, 86, 87, 108, 107
83, 87, 88, 109, 108
84, 88, 89, 110, 109
85, 89, 90, 111, 110
86, 90, 91, 112, 111
87, 91, 92, 113, 112
88, 92, 93, 114, 113
89, 93, 94, 115, 114
90, 94, 95, 116, 115
91, 95, 96, 117, 116
92, 96, 97, 118, 117
93, 97, 98, 119, 118
94, 98, 99, 120, 119
95, 99, 100, 121, 120
96, 100, 101, 122, 121
97, 101, 102, 123, 122
98, 102, 103, 124, 123
99, 103, 104, 125, 124
100, 104, 105, 126, 125
101, 106, 107, 128, 127
102, 107, 108, 129, 128
103, 108, 109, 130, 129
104, 109, 110, 131, 130
105, 110, 111, 132, 131
106, 111, 112, 133, 132
107, 112, 113, 134, 133
108, 113, 114, 135, 134
109, 114, 115, 136, 135
110, 115, 116, 137, 136
111, 116, 117, 138, 137
112, 117, 118, 139, 138
113, 118, 119, 140, 139
114, 119, 120, 141, 140
115, 120, 121, 142, 141
116, 121, 122, 143, 142
117, 122, 123, 144, 143
118, 123, 124, 145, 144
119, 124, 125, 146, 145
120, 125, 126, 147, 146
121, 127, 128, 149, 148
122, 128, 129, 150, 149
123, 129, 130, 151, 150
124, 130, 131, 152, 151
125, 131, 132, 153, 152
126, 132, 133, 154, 153
127, 133, 134, 155, 154
128, 134, 135, 156, 155
129, 135, 136, 157, 156
130, 136, 137, 158, 157
131, 137, 138, 159, 158
132, 138, 139, 160, 159
133, 139, 140, 161, 160
134, 140, 141, 162, 161
135, 141, 142, 163, 162
136, 142, 143, 164, 163
137, 143, 144, 165, 164
138, 144, 145, 166, 165
139, 145, 146, 167, 166
140, 146, 147, 168, 167
141, 148, 149, 170, 169
142, 149, 150, 171, 170
143, 150, 151, 172, 171
144, 151, 152, 173, 172
145, 152, 153, 174, 173
146, 153, 154, 175, 174
147, 154, 155, 176, 175
148, 155, 156, 177, 176
149, 156, 157, 178, 177
150, 157, 158, 179, 178
151, 158, 159, 180, 179
152, 159, 160, 181, 180
153, 160, 161, 182, 181
154, 161, 162, 183, 182
155, 162, 163, 184, 183
156, 163, 164, 185, 184
157, 164, 165, 186, 185
158, 165, 166, 187, 186
159, 166, 167, 188, 187
160, 167, 168, 189, 188
161, 169, 170, 191, 190
162, 170, 171, 192, 191
163, 171, 172, 193, 192
164, 172, 173, 194, 193
165, 173, 174, 195, 194
166, 174, 175, 196, 195
167, 175, 176, 197, 196
168, 176, 177, 198, 197
169, 177, 178, 199, 198
170, 178, 179, 200, 199
171, 179, 180, 201, 200
172, 180, 181, 202, 201
173, 181, 182, 203, 202
174, 182, 183, 204, 203
175, 183, 184, 205, 204
176, 184, 185, 206, 205
177, 185, 186, 207, 206
178, 186, 187, 208, 207
179, 187, 188, 209, 208
180, 188, 189, 210, 209
181, 190, 191, 212, 211
182, 191, 192, 213, 212
183, 192, 193, 214, 213
184, 193, 194, 215, 214
185, 194, 195, 216, 215
186, 195, 196, 217, 216
187, 196, 197, 218, 217
188, 197, 198, 219, 218
189, 198, 199, 220, 219
190, 199, 200, 221, 220
191, 200, 201, 222, 221
192, 201, 202, 223, 222
193, 202, 203, 224, 223
194, 203, 204, 225, 224
195, 204, 205, 226, 225
196, 205, 206, 227, 226
197, 206, 207, 228, 227
198, 207, 208, 229, 228
199, 208, 209, 230, 229
200, 209, 210, 231, 230
201, 211, 212, 233, 232
202, 212, 213, 234, 233
203, 213, 214, 235, 234
204, 214, 215, 236, 235
205, 215, 216, 237, 236
206, 216, 217, 238, 237
207, 217, 218, 239, 238
208, 218, 219, 240, 239
209, 219, 220, 241, 240
210, 220, 221, 242, 241
211, 221, 222, 243, 242
212, 222, 223, 244, 243
213, 223, 224, 245, 244
214, 224, 225, 246, 245
215, 225, 226, 247, 246
216, 226, 227, 248, 247
217, 227, 228, 249, 248
218, 228, 229, 250, 249
219, 229, 230, 251, 250
220, 230, 231, 252, 251
221, 232, 233, 254, 253
222, 233, 234, 255, 254
223, 234, 235, 256, 255
224, 235, 236, 257, 256
225, 236, 237, 258, 257
226, 237, 238, 259, 258
227, 238, 239, 260, 259
228, 239, 240, 261, 260
229, 240, 241, 262, 261
230, 241, 242, 263, 262
231, 242, 243, 264, 263
232, 243, 244, 265, 264
233, 244, 245, 266, 265
234, 245, 246, 267, 266
235, 246, 247, 268, 267
236, 247, 248, 269, 268
237, 248, 249, 270, 269
238, 249, 250, 271, 270
239, 250, 251, 272, 271
240, 251, 252, 273, 272
241, 253, 254, 275, 274
242, 254, 255, 276, 275
243, 255, 256, 277, 276
244, 256, 257, 278, 277
245, 257, 258, 279, 278
246, 258, 259, 280, 279
247, 259, 260, 281, 280
248, 260, 261, 282, 281
249, 261, 262, 283, 282
250, 262, 263, 284, 283
251, 263, 264, 285, 284
252, 264, 265, 286, 285
253, 265, 266, 287, 286
254, 266, 267, 288, 287
255, 267, 268, 289, 288
256, 268, 269, 290, 289
257, 269, 270, 291, 290
258, 270, 271, 292, 291
259, 271, 272, 293, 292
260, 272, 273, 294, 293
261, 274, 275, 296, 295
262, 275, 276, 297, 296
263, 276, 277, 298, 297
264, 277, 278, 299, 298
265, 278, 279, 300, 299
266, 279, 280, 301, 300
267, 280, 281, 302, 301
268, 281, 282, 303, 302
269, 282, 283, 304, 303
270, 283, 284, 305, 304
271, 284, 285, 306, 305
272, 285, 286, 307, 306
273, 286, 287, 308, 307
274, 287, 288, 309, 308
275, 288, 289, 310, 309
276, 289, 290, 311, 310
277, 290, 291, 312, 311
278, 291, 292, 313, 312
279, 292, 293, 314, 313
280, 293, 294, 315, 314
281, 295, 296, 317, 316
282, 296, 297, 318, 317
283, 297, 298, 319, 318
284, 298, 299, 320, 319
285, 299, 300, 321, 320
286, 300, 301, 322, 321
287, 301, 302, 323, 322
288, 302, 303, 324, 323
289, 303, 304, 325, 324
290, 304, 305, 326, 325
291, 305, 306, 327, 326
292, 306, 307, 328, 327
293, 307, 308, 329, 328
294, 308, 309, 330, 329
295, 309, 310, 331, 330
296, 310, 311, 332, 331
297, 311, 312, 333, 332
298, 312, 313, 334, 333
299, 313, 314, 335, 334
300, 314, 315, 336, 335
301, 316, 317, 338, 337
302, 317, 318, 339, 338
303, 318, 319, 340, 339
304, 319, 320, 341, 340
305, 320, 321, 342, 341
306, 321, 322, 343, 342
307, 322, 323, 344, 343
308, 323, 324, 345, 344
309, 324, 325, 346, 345
310, 325, 326, 347, 346
311, 326, 327, 348, 347
312, 327, 328, 349, 348
313, 328, 329, 350, 349
314, 329, 330, 351, 350
315, 330, 331, 352, 351
316, 331, 332, 353, 352
317, 332, 333, 354, 353
318, 333, 334, 355, 354
319, 334, 335, 356, 355
320, 335, 336, 357, 356
321, 337, 338, 359, 358
322, 338, 339, 360, 359
323, 339, 340, 361, 360
324, 340, 341, 362, 361
325, 341, 342, 363, 362
326, 342, 343, 364, 363
327, 343, 344, 365, 364
328, 344, 345, 366, 365
329, 345, 346, 367, 366
330, 346, 347, 368, 367
331, 347, 348, 369, 368
332, 348, 349, 370, 369
333, 349, 350, 371, 370
334, 350, 351, 372, 371
335, 351, 352, 373, 372
336, 352, 353, 374, 373
337, 353, 354, 375, 374
338, 354, 355, 376, 375
339, 355, 356, 377, 376
340, 356, 357, 378, 377
341, 358, 359, 380, 379
342, 359, 360, 381, 380
343, 360, 361, 382, 381
344, 361, 362, 383, 382
345, 362, 363, 384, 383
346, 363, 364, 385, 384
347, 364, 365, 386, 385
348, 365, 366, 387, 386
349, 366, 367, 388, 387
350, 367, 368, 389, 388
351, 368, 369, 390, 389
352, 369, 370, 391, 390
353, 370, 371, 392, 391
354, 371, 372, 393, 392
355, 372, 373, 394, 393
356, 373, 374, 395, 394
357, 374, 375, 396, 395
358, 375, 376, 397, 396
359, 376, 377, 398, 397
360, 377, 378, 399, 398
361, 379, 380, 401, 400
362, 380, 381, 402, 401
363, 381, 382, 403, 402
364, 382, 383, 404, 403
365, 383, 384, 405, 404
366, 384, 385, 406, 405
367, 385, 386, 407, 406
368, 386, 387, 408, 407
369, 387, 388, 409, 408
370, 388, 389, 410, 409
371, 389, 390, 411, 410
372, 390, 391, 412, 411
373, 391, 392, 413, 412
374, 392, 393, 414, 413
375, 393, 394, 415, 414
376, 394, 395, 416, 415
377, 395, 396, 417, 416
378, 396, 397, 418, 417
379, 397, 398, 419, 418
380, 398, 399, 420, 419
381, 400, 401, 422, 421
382, 401, 402, 423, 422
383, 402, 403, 424, 423
384, 403, 404, 425, 424
385, 404, 405, 426, 425
386, 405, 406, 427, 426
387, 406, 407, 428, 427
388, 407, 408, 429, 428
389, 408, 409, 430, 429
390, 409, 410, 431, 430
391, 410, 411, 432, 431
392, 411, 412, 433, 432
393, 412, 413, 434, 433
394, 413, 414, 435, 434
395, 414, 415, 436, 435
396, 415, 416, 437, 436
397, 416, 417, 438, 437
398, 417, 418, 439, 438
399, 418, 419, 440, 439
400, 419, 420, 441, 440
*NSET, NSET=NCEN
221
*NSET, NSET=NX0
1, 22, 43, 64, 85, 106, 127, 148, 169, 190, 211, 232
253, 274, 295, 316, 337, 358, 379, 400, 421
*NSET, NSET=NXA
21, 42, 63, 84, 105, 126, 147, 168, 189, 210, 231, 252
273, 294, 315, 336, 357, 378, 399, 420, 441
*NSET, NSET=NY0
1, 2, 3, 4, 5, 6, 7, 8, 9, 10, 11, 12
13, 14, 15, 16, 17, 18, 19, 20, 21
*NSET, NSET=NYB
421, 422, 423, 424, 425, 426, 427, 428, 429, 430, 431, 432
433, 434, 435, 436, 437, 438, 439, 440, 441
*NSET, NSET=NALL, GENERATE
1, 441, 1
*SHELL GENERAL SECTION, ELSET=EALL, DENSITY=0.2
2.197802e-01, 6.593407e-02, 2.197802e-01, 0.000000e+00, 0.000000e+00, 7.692308e-02, 4.787945e-20, 4.286911e-19
0.000000e+00, 7.326007e-04, 4.286911e-19, -7.146035e-19, 0.000000e+00, 2.197802e-04, 7.326007e-04, 0.000000e+00
0.000000e+00, -2.201670e-19, 0.000000e+00, 0.000000e+00, 2.564103e-04
*TRANSVERSE SHEAR STIFFNESS
6.773365e-02, 6.773365e-02, -9.079505e-18
** SS-1 + drilling
*BOUNDARY
NX0, 2, 3
NXA, 2, 3
NY0, 1, 1
NYB, 1, 1
NY0, 3, 3
NYB, 3, 3
NALL, 6, 6
*AMPLITUDE, NAME=FT
0., 1., 9, 1.
*STEP, NAME=PULSE, INC=400
*DYNAMIC
0.045, 9, 4.5e-06, 0.045
*DLOAD, AMPLITUDE=FT
87, P, 1.000000e+00
88, P, 1.000000e+00
89, P, 1.000000e+00
90, P, 1.000000e+00
91, P, 1.000000e+00
92, P, 1.000000e+00
93, P, 1.000000e+00
94, P, 1.000000e+00
107, P, 1.000000e+00
108, P, 1.000000e+00
109, P, 1.000000e+00
110, P, 1.000000e+00
111, P, 1.000000e+00
112, P, 1.000000e+00
113, P, 1.000000e+00
114, P, 1.000000e+00
127, P, 1.000000e+00
128, P, 1.000000e+00
129, P, 1.000000e+00
130, P, 1.000000e+00
131, P, 1.000000e+00
132, P, 1.000000e+00
133, P, 1.000000e+00
134, P, 1.000000e+00
147, P, 1.000000e+00
148, P, 1.000000e+00
149, P, 1.000000e+00
150, P, 1.000000e+00
151, P, 1.000000e+00
152, P, 1.000000e+00
153, P, 1.000000e+00
154, P, 1.000000e+00
167, P, 1.000000e+00
168, P, 1.000000e+00
169, P, 1.000000e+00
170, P, 1.000000e+00
171, P, 1.000000e+00
172, P, 1.000000e+00
173, P, 1.000000e+00
174, P, 1.000000e+00
187, P, 1.000000e+00
188, P, 1.000000e+00
189, P, 1.000000e+00
190, P, 1.000000e+00
191, P, 1.000000e+00
192, P, 1.000000e+00
193, P, 1.000000e+00
194, P, 1.000000e+00
207, P, 1.000000e+00
208, P, 1.000000e+00
209, P, 1.000000e+00
210, P, 1.000000e+00
211, P, 1.000000e+00
212, P, 1.000000e+00
213, P, 1.000000e+00
214, P, 1.000000e+00
227, P, 1.000000e+00
228, P, 1.000000e+00
229, P, 1.000000e+00
230, P, 1.000000e+00
231, P, 1.000000e+00
232, P, 1.000000e+00
233, P, 1.000000e+00
234, P, 1.000000e+00
247, P, 1.000000e+00
248, P, 1.000000e+00
249, P, 1.000000e+00
250, P, 1.000000e+00
251, P, 1.000000e+00
252, P, 1.000000e+00
253, P, 1.000000e+00
254, P, 1.000000e+00
267, P, 1.000000e+00
268, P, 1.000000e+00
269, P, 1.000000e+00
270, P, 1.000000e+00
271, P, 1.000000e+00
272, P, 1.000000e+00
273, P, 1.000000e+00
274, P, 1.000000e+00
287, P, 1.000000e+00
288, P, 1.000000e+00
289, P, 1.000000e+00
290, P, 1.000000e+00
291, P, 1.000000e+00
292, P, 1.000000e+00
293, P, 1.000000e+00
294, P, 1.000000e+00
307, P, 1.000000e+00
308, P, 1.000000e+00
309, P, 1.000000e+00
310, P, 1.000000e+00
311, P, 1.000000e+00
312, P, 1.000000e+00
313, P, 1.000000e+00
314, P, 1.000000e+00
*NODE PRINT, NSET=NCEN, FREQUENCY=1
U
*END STEP
