*HEADING
Nayak Ex.3 / Pagano sandwich (0/core/0), a/h=100, OpenSG-RM S4 STATIC
*NODE
1, 0.00000000, 0.00000000, 0.0
2, 0.05000000, 0.00000000, 0.0
3, 0.10000000, 0.00000000, 0.0
4, 0.15000000, 0.00000000, 0.0
5, 0.20000000, 0.00000000, 0.0
6, 0.25000000, 0.00000000, 0.0
7, 0.30000000, 0.00000000, 0.0
8, 0.35000000, 0.00000000, 0.0
9, 0.40000000, 0.00000000, 0.0
10, 0.45000000, 0.00000000, 0.0
11, 0.50000000, 0.00000000, 0.0
12, 0.55000000, 0.00000000, 0.0
13, 0.60000000, 0.00000000, 0.0
14, 0.65000000, 0.00000000, 0.0
15, 0.70000000, 0.00000000, 0.0
16, 0.75000000, 0.00000000, 0.0
17, 0.80000000, 0.00000000, 0.0
18, 0.85000000, 0.00000000, 0.0
19, 0.90000000, 0.00000000, 0.0
20, 0.95000000, 0.00000000, 0.0
21, 1.00000000, 0.00000000, 0.0
22, 0.00000000, 0.05000000, 0.0
23, 0.05000000, 0.05000000, 0.0
24, 0.10000000, 0.05000000, 0.0
25, 0.15000000, 0.05000000, 0.0
26, 0.20000000, 0.05000000, 0.0
27, 0.25000000, 0.05000000, 0.0
28, 0.30000000, 0.05000000, 0.0
29, 0.35000000, 0.05000000, 0.0
30, 0.40000000, 0.05000000, 0.0
31, 0.45000000, 0.05000000, 0.0
32, 0.50000000, 0.05000000, 0.0
33, 0.55000000, 0.05000000, 0.0
34, 0.60000000, 0.05000000, 0.0
35, 0.65000000, 0.05000000, 0.0
36, 0.70000000, 0.05000000, 0.0
37, 0.75000000, 0.05000000, 0.0
38, 0.80000000, 0.05000000, 0.0
39, 0.85000000, 0.05000000, 0.0
40, 0.90000000, 0.05000000, 0.0
41, 0.95000000, 0.05000000, 0.0
42, 1.00000000, 0.05000000, 0.0
43, 0.00000000, 0.10000000, 0.0
44, 0.05000000, 0.10000000, 0.0
45, 0.10000000, 0.10000000, 0.0
46, 0.15000000, 0.10000000, 0.0
47, 0.20000000, 0.10000000, 0.0
48, 0.25000000, 0.10000000, 0.0
49, 0.30000000, 0.10000000, 0.0
50, 0.35000000, 0.10000000, 0.0
51, 0.40000000, 0.10000000, 0.0
52, 0.45000000, 0.10000000, 0.0
53, 0.50000000, 0.10000000, 0.0
54, 0.55000000, 0.10000000, 0.0
55, 0.60000000, 0.10000000, 0.0
56, 0.65000000, 0.10000000, 0.0
57, 0.70000000, 0.10000000, 0.0
58, 0.75000000, 0.10000000, 0.0
59, 0.80000000, 0.10000000, 0.0
60, 0.85000000, 0.10000000, 0.0
61, 0.90000000, 0.10000000, 0.0
62, 0.95000000, 0.10000000, 0.0
63, 1.00000000, 0.10000000, 0.0
64, 0.00000000, 0.15000000, 0.0
65, 0.05000000, 0.15000000, 0.0
66, 0.10000000, 0.15000000, 0.0
67, 0.15000000, 0.15000000, 0.0
68, 0.20000000, 0.15000000, 0.0
69, 0.25000000, 0.15000000, 0.0
70, 0.30000000, 0.15000000, 0.0
71, 0.35000000, 0.15000000, 0.0
72, 0.40000000, 0.15000000, 0.0
73, 0.45000000, 0.15000000, 0.0
74, 0.50000000, 0.15000000, 0.0
75, 0.55000000, 0.15000000, 0.0
76, 0.60000000, 0.15000000, 0.0
77, 0.65000000, 0.15000000, 0.0
78, 0.70000000, 0.15000000, 0.0
79, 0.75000000, 0.15000000, 0.0
80, 0.80000000, 0.15000000, 0.0
81, 0.85000000, 0.15000000, 0.0
82, 0.90000000, 0.15000000, 0.0
83, 0.95000000, 0.15000000, 0.0
84, 1.00000000, 0.15000000, 0.0
85, 0.00000000, 0.20000000, 0.0
86, 0.05000000, 0.20000000, 0.0
87, 0.10000000, 0.20000000, 0.0
88, 0.15000000, 0.20000000, 0.0
89, 0.20000000, 0.20000000, 0.0
90, 0.25000000, 0.20000000, 0.0
91, 0.30000000, 0.20000000, 0.0
92, 0.35000000, 0.20000000, 0.0
93, 0.40000000, 0.20000000, 0.0
94, 0.45000000, 0.20000000, 0.0
95, 0.50000000, 0.20000000, 0.0
96, 0.55000000, 0.20000000, 0.0
97, 0.60000000, 0.20000000, 0.0
98, 0.65000000, 0.20000000, 0.0
99, 0.70000000, 0.20000000, 0.0
100, 0.75000000, 0.20000000, 0.0
101, 0.80000000, 0.20000000, 0.0
102, 0.85000000, 0.20000000, 0.0
103, 0.90000000, 0.20000000, 0.0
104, 0.95000000, 0.20000000, 0.0
105, 1.00000000, 0.20000000, 0.0
106, 0.00000000, 0.25000000, 0.0
107, 0.05000000, 0.25000000, 0.0
108, 0.10000000, 0.25000000, 0.0
109, 0.15000000, 0.25000000, 0.0
110, 0.20000000, 0.25000000, 0.0
111, 0.25000000, 0.25000000, 0.0
112, 0.30000000, 0.25000000, 0.0
113, 0.35000000, 0.25000000, 0.0
114, 0.40000000, 0.25000000, 0.0
115, 0.45000000, 0.25000000, 0.0
116, 0.50000000, 0.25000000, 0.0
117, 0.55000000, 0.25000000, 0.0
118, 0.60000000, 0.25000000, 0.0
119, 0.65000000, 0.25000000, 0.0
120, 0.70000000, 0.25000000, 0.0
121, 0.75000000, 0.25000000, 0.0
122, 0.80000000, 0.25000000, 0.0
123, 0.85000000, 0.25000000, 0.0
124, 0.90000000, 0.25000000, 0.0
125, 0.95000000, 0.25000000, 0.0
126, 1.00000000, 0.25000000, 0.0
127, 0.00000000, 0.30000000, 0.0
128, 0.05000000, 0.30000000, 0.0
129, 0.10000000, 0.30000000, 0.0
130, 0.15000000, 0.30000000, 0.0
131, 0.20000000, 0.30000000, 0.0
132, 0.25000000, 0.30000000, 0.0
133, 0.30000000, 0.30000000, 0.0
134, 0.35000000, 0.30000000, 0.0
135, 0.40000000, 0.30000000, 0.0
136, 0.45000000, 0.30000000, 0.0
137, 0.50000000, 0.30000000, 0.0
138, 0.55000000, 0.30000000, 0.0
139, 0.60000000, 0.30000000, 0.0
140, 0.65000000, 0.30000000, 0.0
141, 0.70000000, 0.30000000, 0.0
142, 0.75000000, 0.30000000, 0.0
143, 0.80000000, 0.30000000, 0.0
144, 0.85000000, 0.30000000, 0.0
145, 0.90000000, 0.30000000, 0.0
146, 0.95000000, 0.30000000, 0.0
147, 1.00000000, 0.30000000, 0.0
148, 0.00000000, 0.35000000, 0.0
149, 0.05000000, 0.35000000, 0.0
150, 0.10000000, 0.35000000, 0.0
151, 0.15000000, 0.35000000, 0.0
152, 0.20000000, 0.35000000, 0.0
153, 0.25000000, 0.35000000, 0.0
154, 0.30000000, 0.35000000, 0.0
155, 0.35000000, 0.35000000, 0.0
156, 0.40000000, 0.35000000, 0.0
157, 0.45000000, 0.35000000, 0.0
158, 0.50000000, 0.35000000, 0.0
159, 0.55000000, 0.35000000, 0.0
160, 0.60000000, 0.35000000, 0.0
161, 0.65000000, 0.35000000, 0.0
162, 0.70000000, 0.35000000, 0.0
163, 0.75000000, 0.35000000, 0.0
164, 0.80000000, 0.35000000, 0.0
165, 0.85000000, 0.35000000, 0.0
166, 0.90000000, 0.35000000, 0.0
167, 0.95000000, 0.35000000, 0.0
168, 1.00000000, 0.35000000, 0.0
169, 0.00000000, 0.40000000, 0.0
170, 0.05000000, 0.40000000, 0.0
171, 0.10000000, 0.40000000, 0.0
172, 0.15000000, 0.40000000, 0.0
173, 0.20000000, 0.40000000, 0.0
174, 0.25000000, 0.40000000, 0.0
175, 0.30000000, 0.40000000, 0.0
176, 0.35000000, 0.40000000, 0.0
177, 0.40000000, 0.40000000, 0.0
178, 0.45000000, 0.40000000, 0.0
179, 0.50000000, 0.40000000, 0.0
180, 0.55000000, 0.40000000, 0.0
181, 0.60000000, 0.40000000, 0.0
182, 0.65000000, 0.40000000, 0.0
183, 0.70000000, 0.40000000, 0.0
184, 0.75000000, 0.40000000, 0.0
185, 0.80000000, 0.40000000, 0.0
186, 0.85000000, 0.40000000, 0.0
187, 0.90000000, 0.40000000, 0.0
188, 0.95000000, 0.40000000, 0.0
189, 1.00000000, 0.40000000, 0.0
190, 0.00000000, 0.45000000, 0.0
191, 0.05000000, 0.45000000, 0.0
192, 0.10000000, 0.45000000, 0.0
193, 0.15000000, 0.45000000, 0.0
194, 0.20000000, 0.45000000, 0.0
195, 0.25000000, 0.45000000, 0.0
196, 0.30000000, 0.45000000, 0.0
197, 0.35000000, 0.45000000, 0.0
198, 0.40000000, 0.45000000, 0.0
199, 0.45000000, 0.45000000, 0.0
200, 0.50000000, 0.45000000, 0.0
201, 0.55000000, 0.45000000, 0.0
202, 0.60000000, 0.45000000, 0.0
203, 0.65000000, 0.45000000, 0.0
204, 0.70000000, 0.45000000, 0.0
205, 0.75000000, 0.45000000, 0.0
206, 0.80000000, 0.45000000, 0.0
207, 0.85000000, 0.45000000, 0.0
208, 0.90000000, 0.45000000, 0.0
209, 0.95000000, 0.45000000, 0.0
210, 1.00000000, 0.45000000, 0.0
211, 0.00000000, 0.50000000, 0.0
212, 0.05000000, 0.50000000, 0.0
213, 0.10000000, 0.50000000, 0.0
214, 0.15000000, 0.50000000, 0.0
215, 0.20000000, 0.50000000, 0.0
216, 0.25000000, 0.50000000, 0.0
217, 0.30000000, 0.50000000, 0.0
218, 0.35000000, 0.50000000, 0.0
219, 0.40000000, 0.50000000, 0.0
220, 0.45000000, 0.50000000, 0.0
221, 0.50000000, 0.50000000, 0.0
222, 0.55000000, 0.50000000, 0.0
223, 0.60000000, 0.50000000, 0.0
224, 0.65000000, 0.50000000, 0.0
225, 0.70000000, 0.50000000, 0.0
226, 0.75000000, 0.50000000, 0.0
227, 0.80000000, 0.50000000, 0.0
228, 0.85000000, 0.50000000, 0.0
229, 0.90000000, 0.50000000, 0.0
230, 0.95000000, 0.50000000, 0.0
231, 1.00000000, 0.50000000, 0.0
232, 0.00000000, 0.55000000, 0.0
233, 0.05000000, 0.55000000, 0.0
234, 0.10000000, 0.55000000, 0.0
235, 0.15000000, 0.55000000, 0.0
236, 0.20000000, 0.55000000, 0.0
237, 0.25000000, 0.55000000, 0.0
238, 0.30000000, 0.55000000, 0.0
239, 0.35000000, 0.55000000, 0.0
240, 0.40000000, 0.55000000, 0.0
241, 0.45000000, 0.55000000, 0.0
242, 0.50000000, 0.55000000, 0.0
243, 0.55000000, 0.55000000, 0.0
244, 0.60000000, 0.55000000, 0.0
245, 0.65000000, 0.55000000, 0.0
246, 0.70000000, 0.55000000, 0.0
247, 0.75000000, 0.55000000, 0.0
248, 0.80000000, 0.55000000, 0.0
249, 0.85000000, 0.55000000, 0.0
250, 0.90000000, 0.55000000, 0.0
251, 0.95000000, 0.55000000, 0.0
252, 1.00000000, 0.55000000, 0.0
253, 0.00000000, 0.60000000, 0.0
254, 0.05000000, 0.60000000, 0.0
255, 0.10000000, 0.60000000, 0.0
256, 0.15000000, 0.60000000, 0.0
257, 0.20000000, 0.60000000, 0.0
258, 0.25000000, 0.60000000, 0.0
259, 0.30000000, 0.60000000, 0.0
260, 0.35000000, 0.60000000, 0.0
261, 0.40000000, 0.60000000, 0.0
262, 0.45000000, 0.60000000, 0.0
263, 0.50000000, 0.60000000, 0.0
264, 0.55000000, 0.60000000, 0.0
265, 0.60000000, 0.60000000, 0.0
266, 0.65000000, 0.60000000, 0.0
267, 0.70000000, 0.60000000, 0.0
268, 0.75000000, 0.60000000, 0.0
269, 0.80000000, 0.60000000, 0.0
270, 0.85000000, 0.60000000, 0.0
271, 0.90000000, 0.60000000, 0.0
272, 0.95000000, 0.60000000, 0.0
273, 1.00000000, 0.60000000, 0.0
274, 0.00000000, 0.65000000, 0.0
275, 0.05000000, 0.65000000, 0.0
276, 0.10000000, 0.65000000, 0.0
277, 0.15000000, 0.65000000, 0.0
278, 0.20000000, 0.65000000, 0.0
279, 0.25000000, 0.65000000, 0.0
280, 0.30000000, 0.65000000, 0.0
281, 0.35000000, 0.65000000, 0.0
282, 0.40000000, 0.65000000, 0.0
283, 0.45000000, 0.65000000, 0.0
284, 0.50000000, 0.65000000, 0.0
285, 0.55000000, 0.65000000, 0.0
286, 0.60000000, 0.65000000, 0.0
287, 0.65000000, 0.65000000, 0.0
288, 0.70000000, 0.65000000, 0.0
289, 0.75000000, 0.65000000, 0.0
290, 0.80000000, 0.65000000, 0.0
291, 0.85000000, 0.65000000, 0.0
292, 0.90000000, 0.65000000, 0.0
293, 0.95000000, 0.65000000, 0.0
294, 1.00000000, 0.65000000, 0.0
295, 0.00000000, 0.70000000, 0.0
296, 0.05000000, 0.70000000, 0.0
297, 0.10000000, 0.70000000, 0.0
298, 0.15000000, 0.70000000, 0.0
299, 0.20000000, 0.70000000, 0.0
300, 0.25000000, 0.70000000, 0.0
301, 0.30000000, 0.70000000, 0.0
302, 0.35000000, 0.70000000, 0.0
303, 0.40000000, 0.70000000, 0.0
304, 0.45000000, 0.70000000, 0.0
305, 0.50000000, 0.70000000, 0.0
306, 0.55000000, 0.70000000, 0.0
307, 0.60000000, 0.70000000, 0.0
308, 0.65000000, 0.70000000, 0.0
309, 0.70000000, 0.70000000, 0.0
310, 0.75000000, 0.70000000, 0.0
311, 0.80000000, 0.70000000, 0.0
312, 0.85000000, 0.70000000, 0.0
313, 0.90000000, 0.70000000, 0.0
314, 0.95000000, 0.70000000, 0.0
315, 1.00000000, 0.70000000, 0.0
316, 0.00000000, 0.75000000, 0.0
317, 0.05000000, 0.75000000, 0.0
318, 0.10000000, 0.75000000, 0.0
319, 0.15000000, 0.75000000, 0.0
320, 0.20000000, 0.75000000, 0.0
321, 0.25000000, 0.75000000, 0.0
322, 0.30000000, 0.75000000, 0.0
323, 0.35000000, 0.75000000, 0.0
324, 0.40000000, 0.75000000, 0.0
325, 0.45000000, 0.75000000, 0.0
326, 0.50000000, 0.75000000, 0.0
327, 0.55000000, 0.75000000, 0.0
328, 0.60000000, 0.75000000, 0.0
329, 0.65000000, 0.75000000, 0.0
330, 0.70000000, 0.75000000, 0.0
331, 0.75000000, 0.75000000, 0.0
332, 0.80000000, 0.75000000, 0.0
333, 0.85000000, 0.75000000, 0.0
334, 0.90000000, 0.75000000, 0.0
335, 0.95000000, 0.75000000, 0.0
336, 1.00000000, 0.75000000, 0.0
337, 0.00000000, 0.80000000, 0.0
338, 0.05000000, 0.80000000, 0.0
339, 0.10000000, 0.80000000, 0.0
340, 0.15000000, 0.80000000, 0.0
341, 0.20000000, 0.80000000, 0.0
342, 0.25000000, 0.80000000, 0.0
343, 0.30000000, 0.80000000, 0.0
344, 0.35000000, 0.80000000, 0.0
345, 0.40000000, 0.80000000, 0.0
346, 0.45000000, 0.80000000, 0.0
347, 0.50000000, 0.80000000, 0.0
348, 0.55000000, 0.80000000, 0.0
349, 0.60000000, 0.80000000, 0.0
350, 0.65000000, 0.80000000, 0.0
351, 0.70000000, 0.80000000, 0.0
352, 0.75000000, 0.80000000, 0.0
353, 0.80000000, 0.80000000, 0.0
354, 0.85000000, 0.80000000, 0.0
355, 0.90000000, 0.80000000, 0.0
356, 0.95000000, 0.80000000, 0.0
357, 1.00000000, 0.80000000, 0.0
358, 0.00000000, 0.85000000, 0.0
359, 0.05000000, 0.85000000, 0.0
360, 0.10000000, 0.85000000, 0.0
361, 0.15000000, 0.85000000, 0.0
362, 0.20000000, 0.85000000, 0.0
363, 0.25000000, 0.85000000, 0.0
364, 0.30000000, 0.85000000, 0.0
365, 0.35000000, 0.85000000, 0.0
366, 0.40000000, 0.85000000, 0.0
367, 0.45000000, 0.85000000, 0.0
368, 0.50000000, 0.85000000, 0.0
369, 0.55000000, 0.85000000, 0.0
370, 0.60000000, 0.85000000, 0.0
371, 0.65000000, 0.85000000, 0.0
372, 0.70000000, 0.85000000, 0.0
373, 0.75000000, 0.85000000, 0.0
374, 0.80000000, 0.85000000, 0.0
375, 0.85000000, 0.85000000, 0.0
376, 0.90000000, 0.85000000, 0.0
377, 0.95000000, 0.85000000, 0.0
378, 1.00000000, 0.85000000, 0.0
379, 0.00000000, 0.90000000, 0.0
380, 0.05000000, 0.90000000, 0.0
381, 0.10000000, 0.90000000, 0.0
382, 0.15000000, 0.90000000, 0.0
383, 0.20000000, 0.90000000, 0.0
384, 0.25000000, 0.90000000, 0.0
385, 0.30000000, 0.90000000, 0.0
386, 0.35000000, 0.90000000, 0.0
387, 0.40000000, 0.90000000, 0.0
388, 0.45000000, 0.90000000, 0.0
389, 0.50000000, 0.90000000, 0.0
390, 0.55000000, 0.90000000, 0.0
391, 0.60000000, 0.90000000, 0.0
392, 0.65000000, 0.90000000, 0.0
393, 0.70000000, 0.90000000, 0.0
394, 0.75000000, 0.90000000, 0.0
395, 0.80000000, 0.90000000, 0.0
396, 0.85000000, 0.90000000, 0.0
397, 0.90000000, 0.90000000, 0.0
398, 0.95000000, 0.90000000, 0.0
399, 1.00000000, 0.90000000, 0.0
400, 0.00000000, 0.95000000, 0.0
401, 0.05000000, 0.95000000, 0.0
402, 0.10000000, 0.95000000, 0.0
403, 0.15000000, 0.95000000, 0.0
404, 0.20000000, 0.95000000, 0.0
405, 0.25000000, 0.95000000, 0.0
406, 0.30000000, 0.95000000, 0.0
407, 0.35000000, 0.95000000, 0.0
408, 0.40000000, 0.95000000, 0.0
409, 0.45000000, 0.95000000, 0.0
410, 0.50000000, 0.95000000, 0.0
411, 0.55000000, 0.95000000, 0.0
412, 0.60000000, 0.95000000, 0.0
413, 0.65000000, 0.95000000, 0.0
414, 0.70000000, 0.95000000, 0.0
415, 0.75000000, 0.95000000, 0.0
416, 0.80000000, 0.95000000, 0.0
417, 0.85000000, 0.95000000, 0.0
418, 0.90000000, 0.95000000, 0.0
419, 0.95000000, 0.95000000, 0.0
420, 1.00000000, 0.95000000, 0.0
421, 0.00000000, 1.00000000, 0.0
422, 0.05000000, 1.00000000, 0.0
423, 0.10000000, 1.00000000, 0.0
424, 0.15000000, 1.00000000, 0.0
425, 0.20000000, 1.00000000, 0.0
426, 0.25000000, 1.00000000, 0.0
427, 0.30000000, 1.00000000, 0.0
428, 0.35000000, 1.00000000, 0.0
429, 0.40000000, 1.00000000, 0.0
430, 0.45000000, 1.00000000, 0.0
431, 0.50000000, 1.00000000, 0.0
432, 0.55000000, 1.00000000, 0.0
433, 0.60000000, 1.00000000, 0.0
434, 0.65000000, 1.00000000, 0.0
435, 0.70000000, 1.00000000, 0.0
436, 0.75000000, 1.00000000, 0.0
437, 0.80000000, 1.00000000, 0.0
438, 0.85000000, 1.00000000, 0.0
439, 0.90000000, 1.00000000, 0.0
440, 0.95000000, 1.00000000, 0.0
441, 1.00000000, 1.00000000, 0.0
*ELEMENT, TYPE=S4, ELSET=EALL
1, 1, 2, 23, 22
2, 2, 3, 24, 23
3, 3, 4, 25, 24
4, 4, 5, 26, 25
5, 5, 6, 27, 26
6, 6, 7, 28, 27
7, 7, 8, 29, 28
8, 8, 9, 30, 29
9, 9, 10, 31, 30
10, 10, 11, 32, 31
11, 11, 12, 33, 32
12, 12, 13, 34, 33
13, 13, 14, 35, 34
14, 14, 15, 36, 35
15, 15, 16, 37, 36
16, 16, 17, 38, 37
17, 17, 18, 39, 38
18, 18, 19, 40, 39
19, 19, 20, 41, 40
20, 20, 21, 42, 41
21, 22, 23, 44, 43
22, 23, 24, 45, 44
23, 24, 25, 46, 45
24, 25, 26, 47, 46
25, 26, 27, 48, 47
26, 27, 28, 49, 48
27, 28, 29, 50, 49
28, 29, 30, 51, 50
29, 30, 31, 52, 51
30, 31, 32, 53, 52
31, 32, 33, 54, 53
32, 33, 34, 55, 54
33, 34, 35, 56, 55
34, 35, 36, 57, 56
35, 36, 37, 58, 57
36, 37, 38, 59, 58
37, 38, 39, 60, 59
38, 39, 40, 61, 60
39, 40, 41, 62, 61
40, 41, 42, 63, 62
41, 43, 44, 65, 64
42, 44, 45, 66, 65
43, 45, 46, 67, 66
44, 46, 47, 68, 67
45, 47, 48, 69, 68
46, 48, 49, 70, 69
47, 49, 50, 71, 70
48, 50, 51, 72, 71
49, 51, 52, 73, 72
50, 52, 53, 74, 73
51, 53, 54, 75, 74
52, 54, 55, 76, 75
53, 55, 56, 77, 76
54, 56, 57, 78, 77
55, 57, 58, 79, 78
56, 58, 59, 80, 79
57, 59, 60, 81, 80
58, 60, 61, 82, 81
59, 61, 62, 83, 82
60, 62, 63, 84, 83
61, 64, 65, 86, 85
62, 65, 66, 87, 86
63, 66, 67, 88, 87
64, 67, 68, 89, 88
65, 68, 69, 90, 89
66, 69, 70, 91, 90
67, 70, 71, 92, 91
68, 71, 72, 93, 92
69, 72, 73, 94, 93
70, 73, 74, 95, 94
71, 74, 75, 96, 95
72, 75, 76, 97, 96
73, 76, 77, 98, 97
74, 77, 78, 99, 98
75, 78, 79, 100, 99
76, 79, 80, 101, 100
77, 80, 81, 102, 101
78, 81, 82, 103, 102
79, 82, 83, 104, 103
80, 83, 84, 105, 104
81, 85, 86, 107, 106
82, 86, 87, 108, 107
83, 87, 88, 109, 108
84, 88, 89, 110, 109
85, 89, 90, 111, 110
86, 90, 91, 112, 111
87, 91, 92, 113, 112
88, 92, 93, 114, 113
89, 93, 94, 115, 114
90, 94, 95, 116, 115
91, 95, 96, 117, 116
92, 96, 97, 118, 117
93, 97, 98, 119, 118
94, 98, 99, 120, 119
95, 99, 100, 121, 120
96, 100, 101, 122, 121
97, 101, 102, 123, 122
98, 102, 103, 124, 123
99, 103, 104, 125, 124
100, 104, 105, 126, 125
101, 106, 107, 128, 127
102, 107, 108, 129, 128
103, 108, 109, 130, 129
104, 109, 110, 131, 130
105, 110, 111, 132, 131
106, 111, 112, 133, 132
107, 112, 113, 134, 133
108, 113, 114, 135, 134
109, 114, 115, 136, 135
110, 115, 116, 137, 136
111, 116, 117, 138, 137
112, 117, 118, 139, 138
113, 118, 119, 140, 139
114, 119, 120, 141, 140
115, 120, 121, 142, 141
116, 121, 122, 143, 142
117, 122, 123, 144, 143
118, 123, 124, 145, 144
119, 124, 125, 146, 145
120, 125, 126, 147, 146
121, 127, 128, 149, 148
122, 128, 129, 150, 149
123, 129, 130, 151, 150
124, 130, 131, 152, 151
125, 131, 132, 153, 152
126, 132, 133, 154, 153
127, 133, 134, 155, 154
128, 134, 135, 156, 155
129, 135, 136, 157, 156
130, 136, 137, 158, 157
131, 137, 138, 159, 158
132, 138, 139, 160, 159
133, 139, 140, 161, 160
134, 140, 141, 162, 161
135, 141, 142, 163, 162
136, 142, 143, 164, 163
137, 143, 144, 165, 164
138, 144, 145, 166, 165
139, 145, 146, 167, 166
140, 146, 147, 168, 167
141, 148, 149, 170, 169
142, 149, 150, 171, 170
143, 150, 151, 172, 171
144, 151, 152, 173, 172
145, 152, 153, 174, 173
146, 153, 154, 175, 174
147, 154, 155, 176, 175
148, 155, 156, 177, 176
149, 156, 157, 178, 177
150, 157, 158, 179, 178
151, 158, 159, 180, 179
152, 159, 160, 181, 180
153, 160, 161, 182, 181
154, 161, 162, 183, 182
155, 162, 163, 184, 183
156, 163, 164, 185, 184
157, 164, 165, 186, 185
158, 165, 166, 187, 186
159, 166, 167, 188, 187
160, 167, 168, 189, 188
161, 169, 170, 191, 190
162, 170, 171, 192, 191
163, 171, 172, 193, 192
164, 172, 173, 194, 193
165, 173, 174, 195, 194
166, 174, 175, 196, 195
167, 175, 176, 197, 196
168, 176, 177, 198, 197
169, 177, 178, 199, 198
170, 178, 179, 200, 199
171, 179, 180, 201, 200
172, 180, 181, 202, 201
173, 181, 182, 203, 202
174, 182, 183, 204, 203
175, 183, 184, 205, 204
176, 184, 185, 206, 205
177, 185, 186, 207, 206
178, 186, 187, 208, 207
179, 187, 188, 209, 208
180, 188, 189, 210, 209
181, 190, 191, 212, 211
182, 191, 192, 213, 212
183, 192, 193, 214, 213
184, 193, 194, 215, 214
185, 194, 195, 216, 215
186, 195, 196, 217, 216
187, 196, 197, 218, 217
188, 197, 198, 219, 218
189, 198, 199, 220, 219
190, 199, 200, 221, 220
191, 200, 201, 222, 221
192, 201, 202, 223, 222
193, 202, 203, 224, 223
194, 203, 204, 225, 224
195, 204, 205, 226, 225
196, 205, 206, 227, 226
197, 206, 207, 228, 227
198, 207, 208, 229, 228
199, 208, 209, 230, 229
200, 209, 210, 231, 230
201, 211, 212, 233, 232
202, 212, 213, 234, 233
203, 213, 214, 235, 234
204, 214, 215, 236, 235
205, 215, 216, 237, 236
206, 216, 217, 238, 237
207, 217, 218, 239, 238
208, 218, 219, 240, 239
209, 219, 220, 241, 240
210, 220, 221, 242, 241
211, 221, 222, 243, 242
212, 222, 223, 244, 243
213, 223, 224, 245, 244
214, 224, 225, 246, 245
215, 225, 226, 247, 246
216, 226, 227, 248, 247
217, 227, 228, 249, 248
218, 228, 229, 250, 249
219, 229, 230, 251, 250
220, 230, 231, 252, 251
221, 232, 233, 254, 253
222, 233, 234, 255, 254
223, 234, 235, 256, 255
224, 235, 236, 257, 256
225, 236, 237, 258, 257
226, 237, 238, 259, 258
227, 238, 239, 260, 259
228, 239, 240, 261, 260
229, 240, 241, 262, 261
230, 241, 242, 263, 262
231, 242, 243, 264, 263
232, 243, 244, 265, 264
233, 244, 245, 266, 265
234, 245, 246, 267, 266
235, 246, 247, 268, 267
236, 247, 248, 269, 268
237, 248, 249, 270, 269
238, 249, 250, 271, 270
239, 250, 251, 272, 271
240, 251, 252, 273, 272
241, 253, 254, 275, 274
242, 254, 255, 276, 275
243, 255, 256, 277, 276
244, 256, 257, 278, 277
245, 257, 258, 279, 278
246, 258, 259, 280, 279
247, 259, 260, 281, 280
248, 260, 261, 282, 281
249, 261, 262, 283, 282
250, 262, 263, 284, 283
251, 263, 264, 285, 284
252, 264, 265, 286, 285
253, 265, 266, 287, 286
254, 266, 267, 288, 287
255, 267, 268, 289, 288
256, 268, 269, 290, 289
257, 269, 270, 291, 290
258, 270, 271, 292, 291
259, 271, 272, 293, 292
260, 272, 273, 294, 293
261, 274, 275, 296, 295
262, 275, 276, 297, 296
263, 276, 277, 298, 297
264, 277, 278, 299, 298
265, 278, 279, 300, 299
266, 279, 280, 301, 300
267, 280, 281, 302, 301
268, 281, 282, 303, 302
269, 282, 283, 304, 303
270, 283, 284, 305, 304
271, 284, 285, 306, 305
272, 285, 286, 307, 306
273, 286, 287, 308, 307
274, 287, 288, 309, 308
275, 288, 289, 310, 309
276, 289, 290, 311, 310
277, 290, 291, 312, 311
278, 291, 292, 313, 312
279, 292, 293, 314, 313
280, 293, 294, 315, 314
281, 295, 296, 317, 316
282, 296, 297, 318, 317
283, 297, 298, 319, 318
284, 298, 299, 320, 319
285, 299, 300, 321, 320
286, 300, 301, 322, 321
287, 301, 302, 323, 322
288, 302, 303, 324, 323
289, 303, 304, 325, 324
290, 304, 305, 326, 325
291, 305, 306, 327, 326
292, 306, 307, 328, 327
293, 307, 308, 329, 328
294, 308, 309, 330, 329
295, 309, 310, 331, 330
296, 310, 311, 332, 331
297, 311, 312, 333, 332
298, 312, 313, 334, 333
299, 313, 314, 335, 334
300, 314, 315, 336, 335
301, 316, 317, 338, 337
302, 317, 318, 339, 338
303, 318, 319, 340, 339
304, 319, 320, 341, 340
305, 320, 321, 342, 341
306, 321, 322, 343, 342
307, 322, 323, 344, 343
308, 323, 324, 345, 344
309, 324, 325, 346, 345
310, 325, 326, 347, 346
311, 326, 327, 348, 347
312, 327, 328, 349, 348
313, 328, 329, 350, 349
314, 329, 330, 351, 350
315, 330, 331, 352, 351
316, 331, 332, 353, 352
317, 332, 333, 354, 353
318, 333, 334, 355, 354
319, 334, 335, 356, 355
320, 335, 336, 357, 356
321, 337, 338, 359, 358
322, 338, 339, 360, 359
323, 339, 340, 361, 360
324, 340, 341, 362, 361
325, 341, 342, 363, 362
326, 342, 343, 364, 363
327, 343, 344, 365, 364
328, 344, 345, 366, 365
329, 345, 346, 367, 366
330, 346, 347, 368, 367
331, 347, 348, 369, 368
332, 348, 349, 370, 369
333, 349, 350, 371, 370
334, 350, 351, 372, 371
335, 351, 352, 373, 372
336, 352, 353, 374, 373
337, 353, 354, 375, 374
338, 354, 355, 376, 375
339, 355, 356, 377, 376
340, 356, 357, 378, 377
341, 358, 359, 380, 379
342, 359, 360, 381, 380
343, 360, 361, 382, 381
344, 361, 362, 383, 382
345, 362, 363, 384, 383
346, 363, 364, 385, 384
347, 364, 365, 386, 385
348, 365, 366, 387, 386
349, 366, 367, 388, 387
350, 367, 368, 389, 388
351, 368, 369, 390, 389
352, 369, 370, 391, 390
353, 370, 371, 392, 391
354, 371, 372, 393, 392
355, 372, 373, 394, 393
356, 373, 374, 395, 394
357, 374, 375, 396, 395
358, 375, 376, 397, 396
359, 376, 377, 398, 397
360, 377, 378, 399, 398
361, 379, 380, 401, 400
362, 380, 381, 402, 401
363, 381, 382, 403, 402
364, 382, 383, 404, 403
365, 383, 384, 405, 404
366, 384, 385, 406, 405
367, 385, 386, 407, 406
368, 386, 387, 408, 407
369, 387, 388, 409, 408
370, 388, 389, 410, 409
371, 389, 390, 411, 410
372, 390, 391, 412, 411
373, 391, 392, 413, 412
374, 392, 393, 414, 413
375, 393, 394, 415, 414
376, 394, 395, 416, 415
377, 395, 396, 417, 416
378, 396, 397, 418, 417
379, 397, 398, 419, 418
380, 398, 399, 420, 419
381, 400, 401, 422, 421
382, 401, 402, 423, 422
383, 402, 403, 424, 423
384, 403, 404, 425, 424
385, 404, 405, 426, 425
386, 405, 406, 427, 426
387, 406, 407, 428, 427
388, 407, 408, 429, 428
389, 408, 409, 430, 429
390, 409, 410, 431, 430
391, 410, 411, 432, 431
392, 411, 412, 433, 432
393, 412, 413, 434, 433
394, 413, 414, 435, 434
395, 414, 415, 436, 435
396, 415, 416, 437, 436
397, 416, 417, 438, 437
398, 417, 418, 439, 438
399, 418, 419, 440, 439
400, 419, 420, 441, 440
*NSET, NSET=NCEN
221
*ELSET, ELSET=PATCHC
190, 191, 210, 211
*ELSET, ELSET=PATCHO
1, 2, 21, 22
*ELSET, ELSET=PATCHX
181, 182, 201, 202
*ELSET, ELSET=PATCHY
10, 30, 11, 31
*NSET, NSET=NX0
1, 22, 43, 64, 85, 106, 127, 148, 169, 190, 211, 232
253, 274, 295, 316, 337, 358, 379, 400, 421
*NSET, NSET=NXA
21, 42, 63, 84, 105, 126, 147, 168, 189, 210, 231, 252
273, 294, 315, 336, 357, 378, 399, 420, 441
*NSET, NSET=NY0
1, 2, 3, 4, 5, 6, 7, 8, 9, 10, 11, 12
13, 14, 15, 16, 17, 18, 19, 20, 21
*NSET, NSET=NYB
421, 422, 423, 424, 425, 426, 427, 428, 429, 430, 431, 432
433, 434, 435, 436, 437, 438, 439, 440, 441
*NSET, NSET=NALL, GENERATE
1, 441, 1
*SHELL GENERAL SECTION, ELSET=EALL, DENSITY=1.0
3.477152e+08, 4.041581e+06, 1.616632e+07, 0.000000e+00, 0.000000e+00, 7.771920e+06, -8.348924e-11, 8.878021e-13
0.000000e+00, 7.034932e+03, 9.982749e-12, -6.789925e-12, 0.000000e+00, 7.335961e+01, 2.934384e+02, 0.000000e+00
0.000000e+00, -4.450776e-12, 0.000000e+00, 0.000000e+00, 1.448002e+02
*TRANSVERSE SHEAR STIFFNESS
4.175472e+06, 4.103092e+06, 8.923769e-05
** SS-1 + drilling
*BOUNDARY
NX0, 2, 3
NXA, 2, 3
NY0, 1, 1
NYB, 1, 1
NY0, 3, 3
NYB, 3, 3
NALL, 6, 6
*STEP, NAME=BEND
*STATIC
1., 1.
*DLOAD
1, P, 6.155830e+01
2, P, 1.831591e+02
3, P, 3.002500e+02
4, P, 4.099476e+02
5, P, 5.095511e+02
6, P, 5.966076e+02
7, P, 6.689738e+02
8, P, 7.248675e+02
9, P, 7.629126e+02
10, P, 7.821723e+02
11, P, 7.821723e+02
12, P, 7.629126e+02
13, P, 7.248675e+02
14, P, 6.689738e+02
15, P, 5.966076e+02
16, P, 5.095511e+02
17, P, 4.099476e+02
18, P, 3.002500e+02
19, P, 1.831591e+02
20, P, 6.155830e+01
21, P, 1.831591e+02
22, P, 5.449674e+02
23, P, 8.933567e+02
24, P, 1.219749e+03
25, P, 1.516106e+03
26, P, 1.775132e+03
27, P, 1.990449e+03
28, P, 2.156754e+03
29, P, 2.269952e+03
30, P, 2.327257e+03
31, P, 2.327257e+03
32, P, 2.269952e+03
33, P, 2.156754e+03
34, P, 1.990449e+03
35, P, 1.775132e+03
36, P, 1.516106e+03
37, P, 1.219749e+03
38, P, 8.933567e+02
39, P, 5.449674e+02
40, P, 1.831591e+02
41, P, 3.002500e+02
42, P, 8.933567e+02
43, P, 1.464466e+03
44, P, 1.999515e+03
45, P, 2.485330e+03
46, P, 2.909948e+03
47, P, 3.262913e+03
48, P, 3.535534e+03
49, P, 3.721099e+03
50, P, 3.815037e+03
51, P, 3.815037e+03
52, P, 3.721099e+03
53, P, 3.535534e+03
54, P, 3.262913e+03
55, P, 2.909948e+03
56, P, 2.485330e+03
57, P, 1.999515e+03
58, P, 1.464466e+03
59, P, 8.933567e+02
60, P, 3.002500e+02
61, P, 4.099476e+02
62, P, 1.219749e+03
63, P, 1.999515e+03
64, P, 2.730048e+03
65, P, 3.393357e+03
66, P, 3.973110e+03
67, P, 4.455033e+03
68, P, 4.827257e+03
69, P, 5.080619e+03
70, P, 5.208879e+03
71, P, 5.208879e+03
72, P, 5.080619e+03
73, P, 4.827257e+03
74, P, 4.455033e+03
75, P, 3.973110e+03
76, P, 3.393357e+03
77, P, 2.730048e+03
78, P, 1.999515e+03
79, P, 1.219749e+03
80, P, 4.099476e+02
81, P, 5.095511e+02
82, P, 1.516106e+03
83, P, 2.485330e+03
84, P, 3.393357e+03
85, P, 4.217828e+03
86, P, 4.938442e+03
87, P, 5.537455e+03
88, P, 6.000118e+03
89, P, 6.315037e+03
90, P, 6.474460e+03
91, P, 6.474460e+03
92, P, 6.315037e+03
93, P, 6.000118e+03
94, P, 5.537455e+03
95, P, 4.938442e+03
96, P, 4.217828e+03
97, P, 3.393357e+03
98, P, 2.485330e+03
99, P, 1.516106e+03
100, P, 5.095511e+02
101, P, 5.966076e+02
102, P, 1.775132e+03
103, P, 2.909948e+03
104, P, 3.973110e+03
105, P, 4.938442e+03
106, P, 5.782172e+03
107, P, 6.483527e+03
108, P, 7.025235e+03
109, P, 7.393959e+03
110, P, 7.580619e+03
111, P, 7.580619e+03
112, P, 7.393959e+03
113, P, 7.025235e+03
114, P, 6.483527e+03
115, P, 5.782172e+03
116, P, 4.938442e+03
117, P, 3.973110e+03
118, P, 2.909948e+03
119, P, 1.775132e+03
120, P, 5.966076e+02
121, P, 6.689738e+02
122, P, 1.990449e+03
123, P, 3.262913e+03
124, P, 4.455033e+03
125, P, 5.537455e+03
126, P, 6.483527e+03
127, P, 7.269952e+03
128, P, 7.877368e+03
129, P, 8.290816e+03
130, P, 8.500118e+03
131, P, 8.500118e+03
132, P, 8.290816e+03
133, P, 7.877368e+03
134, P, 7.269952e+03
135, P, 6.483527e+03
136, P, 5.537455e+03
137, P, 4.455033e+03
138, P, 3.262913e+03
139, P, 1.990449e+03
140, P, 6.689738e+02
141, P, 7.248675e+02
142, P, 2.156754e+03
143, P, 3.535534e+03
144, P, 4.827257e+03
145, P, 6.000118e+03
146, P, 7.025235e+03
147, P, 7.877368e+03
148, P, 8.535534e+03
149, P, 8.983527e+03
150, P, 9.210315e+03
151, P, 9.210315e+03
152, P, 8.983527e+03
153, P, 8.535534e+03
154, P, 7.877368e+03
155, P, 7.025235e+03
156, P, 6.000118e+03
157, P, 4.827257e+03
158, P, 3.535534e+03
159, P, 2.156754e+03
160, P, 7.248675e+02
161, P, 7.629126e+02
162, P, 2.269952e+03
163, P, 3.721099e+03
164, P, 5.080619e+03
165, P, 6.315037e+03
166, P, 7.393959e+03
167, P, 8.290816e+03
168, P, 8.983527e+03
169, P, 9.455033e+03
170, P, 9.693724e+03
171, P, 9.693724e+03
172, P, 9.455033e+03
173, P, 8.983527e+03
174, P, 8.290816e+03
175, P, 7.393959e+03
176, P, 6.315037e+03
177, P, 5.080619e+03
178, P, 3.721099e+03
179, P, 2.269952e+03
180, P, 7.629126e+02
181, P, 7.821723e+02
182, P, 2.327257e+03
183, P, 3.815037e+03
184, P, 5.208879e+03
185, P, 6.474460e+03
186, P, 7.580619e+03
187, P, 8.500118e+03
188, P, 9.210315e+03
189, P, 9.693724e+03
190, P, 9.938442e+03
191, P, 9.938442e+03
192, P, 9.693724e+03
193, P, 9.210315e+03
194, P, 8.500118e+03
195, P, 7.580619e+03
196, P, 6.474460e+03
197, P, 5.208879e+03
198, P, 3.815037e+03
199, P, 2.327257e+03
200, P, 7.821723e+02
201, P, 7.821723e+02
202, P, 2.327257e+03
203, P, 3.815037e+03
204, P, 5.208879e+03
205, P, 6.474460e+03
206, P, 7.580619e+03
207, P, 8.500118e+03
208, P, 9.210315e+03
209, P, 9.693724e+03
210, P, 9.938442e+03
211, P, 9.938442e+03
212, P, 9.693724e+03
213, P, 9.210315e+03
214, P, 8.500118e+03
215, P, 7.580619e+03
216, P, 6.474460e+03
217, P, 5.208879e+03
218, P, 3.815037e+03
219, P, 2.327257e+03
220, P, 7.821723e+02
221, P, 7.629126e+02
222, P, 2.269952e+03
223, P, 3.721099e+03
224, P, 5.080619e+03
225, P, 6.315037e+03
226, P, 7.393959e+03
227, P, 8.290816e+03
228, P, 8.983527e+03
229, P, 9.455033e+03
230, P, 9.693724e+03
231, P, 9.693724e+03
232, P, 9.455033e+03
233, P, 8.983527e+03
234, P, 8.290816e+03
235, P, 7.393959e+03
236, P, 6.315037e+03
237, P, 5.080619e+03
238, P, 3.721099e+03
239, P, 2.269952e+03
240, P, 7.629126e+02
241, P, 7.248675e+02
242, P, 2.156754e+03
243, P, 3.535534e+03
244, P, 4.827257e+03
245, P, 6.000118e+03
246, P, 7.025235e+03
247, P, 7.877368e+03
248, P, 8.535534e+03
249, P, 8.983527e+03
250, P, 9.210315e+03
251, P, 9.210315e+03
252, P, 8.983527e+03
253, P, 8.535534e+03
254, P, 7.877368e+03
255, P, 7.025235e+03
256, P, 6.000118e+03
257, P, 4.827257e+03
258, P, 3.535534e+03
259, P, 2.156754e+03
260, P, 7.248675e+02
261, P, 6.689738e+02
262, P, 1.990449e+03
263, P, 3.262913e+03
264, P, 4.455033e+03
265, P, 5.537455e+03
266, P, 6.483527e+03
267, P, 7.269952e+03
268, P, 7.877368e+03
269, P, 8.290816e+03
270, P, 8.500118e+03
271, P, 8.500118e+03
272, P, 8.290816e+03
273, P, 7.877368e+03
274, P, 7.269952e+03
275, P, 6.483527e+03
276, P, 5.537455e+03
277, P, 4.455033e+03
278, P, 3.262913e+03
279, P, 1.990449e+03
280, P, 6.689738e+02
281, P, 5.966076e+02
282, P, 1.775132e+03
283, P, 2.909948e+03
284, P, 3.973110e+03
285, P, 4.938442e+03
286, P, 5.782172e+03
287, P, 6.483527e+03
288, P, 7.025235e+03
289, P, 7.393959e+03
290, P, 7.580619e+03
291, P, 7.580619e+03
292, P, 7.393959e+03
293, P, 7.025235e+03
294, P, 6.483527e+03
295, P, 5.782172e+03
296, P, 4.938442e+03
297, P, 3.973110e+03
298, P, 2.909948e+03
299, P, 1.775132e+03
300, P, 5.966076e+02
301, P, 5.095511e+02
302, P, 1.516106e+03
303, P, 2.485330e+03
304, P, 3.393357e+03
305, P, 4.217828e+03
306, P, 4.938442e+03
307, P, 5.537455e+03
308, P, 6.000118e+03
309, P, 6.315037e+03
310, P, 6.474460e+03
311, P, 6.474460e+03
312, P, 6.315037e+03
313, P, 6.000118e+03
314, P, 5.537455e+03
315, P, 4.938442e+03
316, P, 4.217828e+03
317, P, 3.393357e+03
318, P, 2.485330e+03
319, P, 1.516106e+03
320, P, 5.095511e+02
321, P, 4.099476e+02
322, P, 1.219749e+03
323, P, 1.999515e+03
324, P, 2.730048e+03
325, P, 3.393357e+03
326, P, 3.973110e+03
327, P, 4.455033e+03
328, P, 4.827257e+03
329, P, 5.080619e+03
330, P, 5.208879e+03
331, P, 5.208879e+03
332, P, 5.080619e+03
333, P, 4.827257e+03
334, P, 4.455033e+03
335, P, 3.973110e+03
336, P, 3.393357e+03
337, P, 2.730048e+03
338, P, 1.999515e+03
339, P, 1.219749e+03
340, P, 4.099476e+02
341, P, 3.002500e+02
342, P, 8.933567e+02
343, P, 1.464466e+03
344, P, 1.999515e+03
345, P, 2.485330e+03
346, P, 2.909948e+03
347, P, 3.262913e+03
348, P, 3.535534e+03
349, P, 3.721099e+03
350, P, 3.815037e+03
351, P, 3.815037e+03
352, P, 3.721099e+03
353, P, 3.535534e+03
354, P, 3.262913e+03
355, P, 2.909948e+03
356, P, 2.485330e+03
357, P, 1.999515e+03
358, P, 1.464466e+03
359, P, 8.933567e+02
360, P, 3.002500e+02
361, P, 1.831591e+02
362, P, 5.449674e+02
363, P, 8.933567e+02
364, P, 1.219749e+03
365, P, 1.516106e+03
366, P, 1.775132e+03
367, P, 1.990449e+03
368, P, 2.156754e+03
369, P, 2.269952e+03
370, P, 2.327257e+03
371, P, 2.327257e+03
372, P, 2.269952e+03
373, P, 2.156754e+03
374, P, 1.990449e+03
375, P, 1.775132e+03
376, P, 1.516106e+03
377, P, 1.219749e+03
378, P, 8.933567e+02
379, P, 5.449674e+02
380, P, 1.831591e+02
381, P, 6.155830e+01
382, P, 1.831591e+02
383, P, 3.002500e+02
384, P, 4.099476e+02
385, P, 5.095511e+02
386, P, 5.966076e+02
387, P, 6.689738e+02
388, P, 7.248675e+02
389, P, 7.629126e+02
390, P, 7.821723e+02
391, P, 7.821723e+02
392, P, 7.629126e+02
393, P, 7.248675e+02
394, P, 6.689738e+02
395, P, 5.966076e+02
396, P, 5.095511e+02
397, P, 4.099476e+02
398, P, 3.002500e+02
399, P, 1.831591e+02
400, P, 6.155830e+01
*NODE PRINT, NSET=NCEN
U
*EL PRINT, ELSET=PATCHC
SF, SM
*EL PRINT, ELSET=PATCHC
COORD
*EL PRINT, ELSET=PATCHO
SF, SM
*EL PRINT, ELSET=PATCHO
COORD
*EL PRINT, ELSET=PATCHX
SF, SM
*EL PRINT, ELSET=PATCHX
COORD
*EL PRINT, ELSET=PATCHY
SF, SM
*EL PRINT, ELSET=PATCHY
COORD
*END STEP
